     Program PWSCF v.6.5 starts on 11Nov2022 at 13:59: 1

     R & G space division:  proc/nbgrp/npool/nimage =       2
     Reading input from DO3-1Si.in

     Current dimensions of program PWSCF are:
     Max number of different atomic species (ntypx) = 10
     Max number of k-points (npk) =  40000
     Max angular momentum in pseudopotentials (lmaxx) =  3

     IMPORTANT: XC functional enforced from input :
     Exchange-correlation= PBE
                           (   1   4   3   4   0   0   0)
     Any further DFT definition will be discarded
     Please, verify this is what you really want

               file Fe.pbe-spn-kjpaw_psl.0.2.1.UPF: wavefunction(s)  3D renormalized

     Subspace diagonalization in iterative solution of the eigenvalue problem:
     a serial algorithm will be used

     Message from routine setup:
     using ibrav=0 with symmetry is DISCOURAGED, use correct ibrav instead

     bravais-lattice index     =            0
     lattice parameter (alat)  =      10.6864  a.u.
     unit-cell volume          =    1220.3782 (a.u.)^3
     number of atoms/cell      =           16
     number of atomic types    =            2
     number of electrons       =       220.00
     number of Kohn-Sham states=          132
     kinetic-energy cutoff     =      64.0000  Ry
     charge density cutoff     =     782.0000  Ry
     convergence threshold     =      1.0E-08
     mixing beta               =       0.7000
     number of iterations used =            8  plain     mixing
     Exchange-correlation= PBE
                           (   1   4   3   4   0   0   0)

     celldm(1)=  10.686401  celldm(2)=   0.000000  celldm(3)=   0.000000
     celldm(4)=   0.000000  celldm(5)=   0.000000  celldm(6)=   0.000000

     crystal axes: (cart. coord. in units of alat)
               a(1) = (   1.000000   0.000000   0.000000 )
               a(2) = (   0.000000   1.000000   0.000000 )
               a(3) = (   0.000000   0.000000   1.000000 )

     reciprocal axes: (cart. coord. in units 2 pi/alat)
               b(1) = (  1.000000  0.000000  0.000000 )
               b(2) = (  0.000000  1.000000  0.000000 )
               b(3) = (  0.000000  0.000000  1.000000 )

     PseudoPot. # 1 for Si read from file:
     ../../my-pseudo-library/Si.pbe-n-rrkjus_psl.1.0.0.UPF
     MD5 check sum: 0b0bb1205258b0d07b9f9672cf965d36
     Pseudo is Ultrasoft + core correction, Zval =  4.0
     Generated using "atomic" code by A. Dal Corso v.5.1
     Using radial grid of 1141 points,  6 beta functions with:
                l(1) =   0
                l(2) =   0
                l(3) =   1
                l(4) =   1
                l(5) =   2
                l(6) =   2
     Q(r) pseudized with 0 coefficients

     PseudoPot. # 2 for Fe read from file:
     ../../my-pseudo-library/Fe.pbe-spn-kjpaw_psl.0.2.1.UPF
     MD5 check sum: e86618425769142926afa95317d90200
     Pseudo is Projector augmented-wave + core cor, Zval = 16.0
     Generated using "atomic" code by A. Dal Corso v.5.0.99 svn rev. 10869
     Shape of augmentation charge: PSQ
     Using radial grid of 1191 points,  6 beta functions with:
                l(1) =   0
                l(2) =   0
                l(3) =   1
                l(4) =   1
                l(5) =   2
                l(6) =   2
     Q(r) pseudized with 0 coefficients

     atomic species   valence    mass     pseudopotential
        Si             4.00    28.08500     Si( 1.00)
        Fe            16.00    55.84500     Fe( 1.00)

     Starting magnetic structure
     atomic species   magnetization
        Si           1.000
        Fe           1.000

     48 Sym. Ops., with inversion, found

   Cartesian axes

     site n.     atom                  positions (alat units)
         1           Fe  tau(   1) = (   0.5000000   0.5000000   0.5000000  )
         2           Fe  tau(   2) = (   0.5000000   0.0000000   0.0000000  )
         3           Fe  tau(   3) = (   0.0000000   0.5000000   0.0000000  )
         4           Fe  tau(   4) = (   0.0000000   0.0000000   0.5000000  )
         5           Fe  tau(   5) = (   0.2500000   0.2500000   0.2500000  )
         6           Fe  tau(   6) = (   0.7500000   0.7500000   0.7500000  )
         7           Fe  tau(   7) = (   0.7500000   0.7500000   0.2500000  )
         8           Fe  tau(   8) = (   0.2500000   0.2500000   0.7500000  )
         9           Fe  tau(   9) = (   0.7500000   0.2500000   0.7500000  )
        10           Fe  tau(  10) = (   0.2500000   0.7500000   0.2500000  )
        11           Fe  tau(  11) = (   0.2500000   0.7500000   0.7500000  )
        12           Fe  tau(  12) = (   0.7500000   0.2500000   0.2500000  )
        13           Fe  tau(  13) = (   0.0000000   0.0000000   0.0000000  )
        14           Si  tau(  14) = (   0.0000000   0.5000000   0.5000000  )
        15           Si  tau(  15) = (   0.5000000   0.0000000   0.5000000  )
        16           Si  tau(  16) = (   0.5000000   0.5000000   0.0000000  )

     number of k points=    10  Marzari-Vanderbilt smearing, width (Ry)=  0.0050
                       cart. coord. in units 2pi/alat
        k(    1) = (   0.0000000   0.0000000   0.0000000), wk =   0.0080000
        k(    2) = (   0.0000000   0.0000000   0.2000000), wk =   0.0480000
        k(    3) = (   0.0000000   0.0000000   0.4000000), wk =   0.0480000
        k(    4) = (   0.0000000   0.2000000   0.2000000), wk =   0.0960000
        k(    5) = (   0.0000000   0.2000000   0.4000000), wk =   0.1920000
        k(    6) = (   0.0000000   0.4000000   0.4000000), wk =   0.0960000
        k(    7) = (   0.2000000   0.2000000   0.2000000), wk =   0.0640000
        k(    8) = (   0.2000000   0.2000000   0.4000000), wk =   0.1920000
        k(    9) = (   0.2000000   0.4000000   0.4000000), wk =   0.1920000
        k(   10) = (   0.4000000   0.4000000   0.4000000), wk =   0.0640000

     Check: negative core charge=   -0.000019

     Initial potential from superposition of free atoms

     starting charge  219.99262, renormalised to  220.00000
     Starting wfcs are  181 randomized atomic wfcs
     Checking if some PAW data can be deallocated...

     Self-consistent Calculation

     iteration #  1     ecut=    64.00 Ry     beta= 0.70
     Davidson diagonalization with overlap
     ethr =  1.00E-02,  avg # of iterations =  2.8

     total energy              =   -4304.76379874 Ry
     Harris-Foulkes estimate   =   -4246.23263028 Ry
     estimated scf accuracy    <      55.21407049 Ry

     total magnetization       =    44.00 Bohr mag/cell
     absolute magnetization    =    58.82 Bohr mag/cell

[...]

     total energy              =   -4314.97316039 Ry
     Harris-Foulkes estimate   =   -4314.97316039 Ry
     estimated scf accuracy    <       0.00000002 Ry

[...]

     iteration # 27     ecut=    64.00 Ry     beta= 0.70
     Davidson diagonalization with overlap
     ethr =  8.22E-12,  avg # of iterations =  2.5

     Magnetic moment per site:
     atom:    1    charge:   14.3923    magn:    2.3537    constr:    0.0000
     atom:    2    charge:   14.3840    magn:    2.5033    constr:    0.0000
     atom:    3    charge:   14.3840    magn:    2.5033    constr:    0.0000
     atom:    4    charge:   14.3840    magn:    2.5033    constr:    0.0000
     atom:    5    charge:   14.4555    magn:    1.7154    constr:    0.0000
     atom:    6    charge:   14.4555    magn:    1.7154    constr:    0.0000
     atom:    7    charge:   14.4555    magn:    1.7154    constr:    0.0000
     atom:    8    charge:   14.4555    magn:    1.7154    constr:    0.0000
     atom:    9    charge:   14.4555    magn:    1.7154    constr:    0.0000
     atom:   10    charge:   14.4555    magn:    1.7154    constr:    0.0000
     atom:   11    charge:   14.4555    magn:    1.7154    constr:    0.0000
     atom:   12    charge:   14.4555    magn:    1.7154    constr:    0.0000
     atom:   13    charge:   14.3712    magn:    2.4754    constr:    0.0000
     atom:   14    charge:    2.0523    magn:   -0.0834    constr:    0.0000
     atom:   15    charge:    2.0523    magn:   -0.0834    constr:    0.0000
     atom:   16    charge:    2.0523    magn:   -0.0834    constr:    0.0000

     End of self-consistent calculation

 ------ SPIN UP ------------

          k = 0.0000 0.0000 0.0000 ( 10635 PWs)   bands (ev):

   -70.7914 -70.7564 -70.7535 -70.7535 -70.6275 -70.0256 -70.0243 -70.0243
   -70.0243 -70.0185 -70.0185 -70.0185 -70.0131 -36.8725 -36.8725 -36.8725
   -36.8630 -36.8630 -36.8630 -36.8484 -36.8484 -36.8484 -36.7498 -36.7498
   -36.7498 -36.6540 -36.6540 -36.6540 -36.1367 -36.1202 -36.1202 -36.1126
   -36.1126 -36.1126 -36.0810 -36.0810 -36.0810 -36.0720 -36.0720 -36.0720
   -36.0558 -36.0551 -36.0551 -36.0551 -36.0442 -36.0442 -36.0442 -36.0374
   -36.0374 -36.0354 -36.0354 -36.0354   6.5776   8.9492   8.9492  11.4802
    11.4802  11.4802  12.1598  12.8517  12.8517  12.9294  12.9294  12.9294
    13.2340  13.2340  13.3331  13.5091  13.5091  13.5091  14.2970  14.2970
    14.2970  14.5297  14.5297  14.5297  14.5763  14.5763  14.5763  14.6812
    14.6812  14.6812  14.8123  14.8123  14.8123  14.8128  14.8128  14.9334
    15.5695  15.5695  15.5695  15.7737  15.7737  15.7737  15.9885  15.9885
    16.2746  16.2746  16.2746  16.4485  16.4485  16.6225  16.6225  16.6225
    16.6388  16.6497  16.6497  16.7173  16.7173  16.7173  16.7357  16.7357
    16.7727  16.9241  16.9241  16.9241  17.0893  17.0893  17.0893  17.1298
    17.1298  17.1672  17.1672  17.1672  17.8265  17.8265  17.8265  17.8292
    17.8292  17.8292  21.2982  21.6778

[...]

 ------ SPIN DOWN ----------

[...]

          k = 0.4000 0.4000 0.4000 ( 10528 PWs)   bands (ev):

   -68.0358 -68.0062 -68.0029 -68.0029 -68.0001 -67.9989 -67.9989 -67.9971
   -67.9793 -67.7886 -67.7886 -67.7876 -67.7025 -34.2656 -34.2623 -34.2623
   -34.2052 -34.1988 -34.1988 -34.1861 -34.1861 -34.1803 -34.1798 -34.1798
   -34.1637 -34.1523 -34.1523 -34.1409 -34.1194 -34.1194 -34.1155 -34.1151
   -34.1151 -34.1120 -34.1094 -34.1094 -34.1088 -34.0003 -33.9969 -33.9969
   -33.8882 -33.8834 -33.8834 -33.8689 -33.8689 -33.8657 -33.7996 -33.7777
   -33.7777 -33.7649 -33.7649 -33.7643   8.2070   8.5289   8.5289  11.0010
    11.3475  11.4395  11.4395  13.0103  13.7338  13.7338  13.9705  13.9705
    14.0490  15.0321  15.1386  15.1386  15.5186  15.5186  15.5504  15.5967
    15.7534  15.7534  15.8651  15.8651  15.9003  15.9003  15.9492  15.9786
    15.9791  15.9791  16.0869  16.0869  16.2700  16.3655  16.3655  16.3724
    16.4139  16.4139  16.4284  17.1447  17.1447  17.1528  17.2109  17.3130
    17.3130  17.3494  17.3497  17.3497  18.7466  18.7735  18.7735  18.9024
    18.9024  18.9162  18.9549  18.9549  19.0017  19.0017  19.0088  19.0549
    19.0549  19.0774  19.0777  19.0777  19.1282  19.1609  19.1609  19.1950
    19.3299  19.3299  19.4169  19.4169  19.6961  21.2900  21.2900  21.5032
    21.9905  21.9905  22.2160  22.4672

     the Fermi energy is    17.6301 ev

!    total energy              =   -4314.97316039 Ry
     Harris-Foulkes estimate   =   -4314.97316039 Ry
     estimated scf accuracy    <          6.5E-09 Ry

     The total energy is the sum of the following terms:

     one-electron contribution =   -1657.36443850 Ry
     hartree contribution      =     971.22675146 Ry
     xc contribution           =    -471.94453362 Ry
     ewald contribution        =   -2166.94255205 Ry
     one-center paw contrib.   =    -989.94861069 Ry
     smearing contrib. (-TS)   =       0.00022300 Ry

     total magnetization       =    25.27 Bohr mag/cell
     absolute magnetization    =    27.29 Bohr mag/cell

     convergence has been achieved in  27 iterations

     Forces acting on atoms (cartesian axes, Ry/au):

     atom    1 type  2   force =     0.00000000    0.00000000    0.00000000
     atom    2 type  2   force =     0.00000000    0.00000000    0.00000000
     atom    3 type  2   force =     0.00000000    0.00000000    0.00000000
     atom    4 type  2   force =     0.00000000    0.00000000    0.00000000
     atom    5 type  2   force =     0.00336582    0.00336582    0.00336582
     atom    6 type  2   force =    -0.00336582   -0.00336582   -0.00336582
     atom    7 type  2   force =    -0.00336582   -0.00336582    0.00336582
     atom    8 type  2   force =     0.00336582    0.00336582   -0.00336582
     atom    9 type  2   force =    -0.00336582    0.00336582   -0.00336582
     atom   10 type  2   force =     0.00336582   -0.00336582    0.00336582
     atom   11 type  2   force =     0.00336582   -0.00336582   -0.00336582
     atom   12 type  2   force =    -0.00336582    0.00336582    0.00336582
     atom   13 type  2   force =     0.00000000    0.00000000    0.00000000
     atom   14 type  1   force =     0.00000000    0.00000000    0.00000000
     atom   15 type  1   force =     0.00000000    0.00000000    0.00000000
     atom   16 type  1   force =     0.00000000    0.00000000    0.00000000

     Total force =     0.016489     Total SCF correction =     0.000112

     Computing stress (Cartesian axis) and pressure

          total   stress  (Ry/bohr**3)                   (kbar)     P=      -40.52
  -0.00027544   0.00000000   0.00000000          -40.52        0.00        0.00
   0.00000000  -0.00027544   0.00000000            0.00      -40.52        0.00
   0.00000000   0.00000000  -0.00027544            0.00        0.00      -40.52

     Writing output data file ./cryst.save/

     General routines

     Parallel routines

   This run was terminated on:  15: 9: 0  11Nov2022

   JOB DONE.