     Program PWSCF v.7.1 starts on 27Nov2022 at 22: 4:25

     Waiting for input...
     Reading input from standard input

     Current dimensions of program PWSCF are:
     Max number of different atomic species (ntypx) = 10
     Max number of k-points (npk) =  40000
     Max angular momentum in pseudopotentials (lmaxx) =  4
     file Fe.pbe-spn-kjpaw_psl.0.2.1.UPF: wavefunction(s)  3D renormalized

     IMPORTANT: XC functional enforced from input :
     Exchange-correlation= PBE
                           (   1   4   3   4   0   0   0)
     Any further DFT definition will be discarded
     Please, verify this is what you really want

     Message from routine setup:
     using ibrav=0 with symmetry is DISCOURAGED, use correct ibrav instead

     R & G space division:  proc/nbgrp/npool/nimage =       4
     Subspace diagonalization in iterative solution of the eigenvalue problem:
     a serial algorithm will be used

     Using Slab Decomposition

     bravais-lattice index     =            0
     lattice parameter (alat)  =      10.6864  a.u.
     unit-cell volume          =    2440.7563 (a.u.)^3
     number of atoms/cell      =           32
     number of atomic types    =            2
     number of electrons       =       428.00
     number of Kohn-Sham states=          257
     kinetic-energy cutoff     =      54.0000  Ry
     charge density cutoff     =     432.0000  Ry
     scf convergence threshold =      1.0E-08
     mixing beta               =       0.7000
     number of iterations used =            8  plain     mixing
     energy convergence thresh.=      1.0E-04
     force convergence thresh. =      1.0E-03
     press convergence thresh. =      5.0E-01
     Exchange-correlation= PBE
                           (   1   4   3   4   0   0   0)
     nstep                     =           50

     GPU acceleration is ACTIVE.

     Message from routine print_cuda_info:
     High GPU oversubscription detected. Are you sure this is what you want?

     celldm(1)=  10.686401  celldm(2)=   0.000000  celldm(3)=   0.000000
     celldm(4)=   0.000000  celldm(5)=   0.000000  celldm(6)=   0.000000

     crystal axes: (cart. coord. in units of alat)
               a(1) = (   2.000000   0.000000   0.000000 )
               a(2) = (   0.000000   1.000000   0.000000 )
               a(3) = (   0.000000   0.000000   1.000000 )

     reciprocal axes: (cart. coord. in units 2 pi/alat)
               b(1) = (  0.500000  0.000000  0.000000 )
               b(2) = (  0.000000  1.000000  0.000000 )
               b(3) = (  0.000000  0.000000  1.000000 )

     PseudoPot. # 1 for Si read from file:
     ./Si.pbe-n-rrkjus_psl.1.0.0.UPF
     MD5 check sum: 0b0bb1205258b0d07b9f9672cf965d36
     Pseudo is Ultrasoft + core correction, Zval =  4.0
     Generated using "atomic" code by A. Dal Corso  v.5.1
     Using radial grid of 1141 points,  6 beta functions with:
                l(1) =   0
                l(2) =   0
                l(3) =   1
                l(4) =   1
                l(5) =   2
                l(6) =   2
     Q(r) pseudized with 0 coefficients

     PseudoPot. # 2 for Fe read from file:
     ./Fe.pbe-spn-kjpaw_psl.0.2.1.UPF
     MD5 check sum: e86618425769142926afa95317d90200
     Pseudo is Projector augmented-wave + core cor, Zval = 16.0
     Generated using "atomic" code by A. Dal Corso  v.5.0.99 svn rev. 10869
     Shape of augmentation charge: PSQ
     Using radial grid of 1191 points,  6 beta functions with:
                l(1) =   0
                l(2) =   0
                l(3) =   1
                l(4) =   1
                l(5) =   2
                l(6) =   2
     Q(r) pseudized with 0 coefficients

     atomic species   valence    mass     pseudopotential
        Si             4.00    28.08500     Si( 1.00)
        Fe            16.00    55.84500     Fe( 1.00)

     Starting magnetic structure
     atomic species   magnetization
        Si           1.000
        Fe           1.000

     16 Sym. Ops., with inversion, found

   Cartesian axes

     site n.     atom                  positions (alat units)
         1           Fe  tau(   1) = (   0.5000000   0.5000000   0.5000000  )
         2           Fe  tau(   2) = (   0.5000000   1.0000000   1.0000000  )
         3           Fe  tau(   3) = (   1.0000000   0.5000000   1.0000000  )
         4           Fe  tau(   4) = (   1.0000000   1.0000000   0.5000000  )
         5           Fe  tau(   5) = (   0.2500000   0.2500000   0.2500000  )
         6           Fe  tau(   6) = (   0.2500000   0.7500000   0.7500000  )
         7           Fe  tau(   7) = (   0.7500000   0.2500000   0.7500000  )
         8           Fe  tau(   8) = (   0.7500000   0.7500000   0.2500000  )
         9           Fe  tau(   9) = (   0.7500000   0.7500000   0.7500000  )
        10           Fe  tau(  10) = (   0.7500000   0.2500000   0.2500000  )
        11           Fe  tau(  11) = (   0.2500000   0.7500000   0.2500000  )
        12           Fe  tau(  12) = (   0.2500000   0.2500000   0.7500000  )
        13           Si  tau(  13) = (   0.0000000   0.0000000   0.0000000  )
        14           Si  tau(  14) = (   0.0000000   0.5000000   0.5000000  )
        15           Si  tau(  15) = (   0.5000000   0.0000000   0.5000000  )
        16           Si  tau(  16) = (   0.5000000   0.5000000   0.0000000  )
        17           Fe  tau(  17) = (   1.5000000   0.5000000   0.5000000  )
        18           Fe  tau(  18) = (   1.5000000   1.0000000   1.0000000  )
        19           Fe  tau(  19) = (   2.0000000   0.5000000   1.0000000  )
        20           Fe  tau(  20) = (   2.0000000   1.0000000   0.5000000  )
        21           Fe  tau(  21) = (   1.2500000   0.2500000   0.2500000  )
        22           Fe  tau(  22) = (   1.2500000   0.7500000   0.7500000  )
        23           Fe  tau(  23) = (   1.7500000   0.2500000   0.7500000  )
        24           Fe  tau(  24) = (   1.7500000   0.7500000   0.2500000  )
        25           Fe  tau(  25) = (   1.7500000   0.7500000   0.7500000  )
        26           Fe  tau(  26) = (   1.7500000   0.2500000   0.2500000  )
        27           Fe  tau(  27) = (   1.2500000   0.7500000   0.2500000  )
        28           Fe  tau(  28) = (   1.2500000   0.2500000   0.7500000  )
        29           Fe  tau(  29) = (   1.0000000   0.0000000   0.0000000  )
        30           Si  tau(  30) = (   1.0000000   0.5000000   0.5000000  )
        31           Si  tau(  31) = (   1.5000000   0.0000000   0.5000000  )
        32           Si  tau(  32) = (   1.5000000   0.5000000   0.0000000  )

     number of k points=    18  Marzari-Vanderbilt smearing, width (Ry)=  0.0050
                       cart. coord. in units 2pi/alat
        k(    1) = (   0.0000000   0.0000000   0.0000000), wk =   0.0080000
        k(    2) = (   0.0000000   0.0000000   0.2000000), wk =   0.0320000
        k(    3) = (   0.0000000   0.0000000   0.4000000), wk =   0.0320000
        k(    4) = (   0.0000000   0.2000000   0.2000000), wk =   0.0320000
        k(    5) = (   0.0000000   0.2000000   0.4000000), wk =   0.0640000
        k(    6) = (   0.0000000   0.4000000   0.4000000), wk =   0.0320000
        k(    7) = (   0.1000000   0.0000000   0.0000000), wk =   0.0160000
        k(    8) = (   0.1000000   0.0000000   0.2000000), wk =   0.0640000
        k(    9) = (   0.1000000   0.0000000   0.4000000), wk =   0.0640000
        k(   10) = (   0.1000000   0.2000000   0.2000000), wk =   0.0640000
        k(   11) = (   0.1000000   0.2000000   0.4000000), wk =   0.1280000
        k(   12) = (   0.1000000   0.4000000   0.4000000), wk =   0.0640000
        k(   13) = (   0.2000000   0.0000000   0.0000000), wk =   0.0160000
        k(   14) = (   0.2000000   0.0000000   0.2000000), wk =   0.0640000
        k(   15) = (   0.2000000   0.0000000   0.4000000), wk =   0.0640000
        k(   16) = (   0.2000000   0.2000000   0.2000000), wk =   0.0640000
        k(   17) = (   0.2000000   0.2000000   0.4000000), wk =   0.1280000
        k(   18) = (   0.2000000   0.4000000   0.4000000), wk =   0.0640000

     Check: negative core charge=   -0.000063
     Generating pointlists ...
     new r_m :   0.1786 (alat units)  1.9088 (a.u.) for type    1
     new r_m :   0.1786 (alat units)  1.9088 (a.u.) for type    2

     Initial potential from superposition of free atoms

     starting charge     427.9851, renormalised to     428.0000
     Starting wfcs are  353 randomized atomic wfcs
     Checking if some PAW data can be deallocated...

     Self-consistent Calculation

     iteration #  1     ecut=    54.00 Ry     beta= 0.70
     Davidson diagonalization with overlap
     ethr =  1.00E-02,  avg # of iterations =  2.7

     negative rho (up, down):  0.000E+00 6.189E-03

     total energy              =   -8291.97435261 Ry
     estimated scf accuracy    <     105.40511574 Ry

     total magnetization       =    86.00 Bohr mag/cell
     absolute magnetization    =   112.42 Bohr mag/cell

[...]

     iteration # 23     ecut=    54.00 Ry     beta= 0.70
     Davidson diagonalization with overlap
     c_bands:  2 eigenvalues not converged
     c_bands:  1 eigenvalues not converged
     c_bands:  1 eigenvalues not converged
     c_bands:  1 eigenvalues not converged
     ethr =  6.90E-06,  avg # of iterations =  9.0

[...]

     Magnetic moment per site  (integrated on atomic sphere of radius R)
     atom   1 (R=0.179)  charge= 14.3849  magn=  2.4611
     atom   2 (R=0.179)  charge= 14.3811  magn=  2.5249
     atom   3 (R=0.179)  charge= 14.3825  magn=  2.5253
     atom   4 (R=0.179)  charge= 14.3825  magn=  2.5253
     atom   5 (R=0.179)  charge= 14.4821  magn=  1.3717
     atom   6 (R=0.179)  charge= 14.4821  magn=  1.3717
     atom   7 (R=0.179)  charge= 14.4574  magn=  1.6812
     atom   8 (R=0.179)  charge= 14.4574  magn=  1.6812
     atom   9 (R=0.179)  charge= 14.4574  magn=  1.6812
     atom  10 (R=0.179)  charge= 14.4574  magn=  1.6812
     atom  11 (R=0.179)  charge= 14.4821  magn=  1.3717
     atom  12 (R=0.179)  charge= 14.4821  magn=  1.3717
     atom  13 (R=0.179)  charge=  2.0493  magn= -0.0709
     atom  14 (R=0.179)  charge=  2.0486  magn= -0.0657
     atom  15 (R=0.179)  charge=  2.0503  magn= -0.0748
     atom  16 (R=0.179)  charge=  2.0503  magn= -0.0748
     atom  17 (R=0.179)  charge= 14.3849  magn=  2.4611
     atom  18 (R=0.179)  charge= 14.3811  magn=  2.5249
     atom  19 (R=0.179)  charge= 14.3781  magn=  2.5293
     atom  20 (R=0.179)  charge= 14.3781  magn=  2.5293
     atom  21 (R=0.179)  charge= 14.4574  magn=  1.6812
     atom  22 (R=0.179)  charge= 14.4574  magn=  1.6812
     atom  23 (R=0.179)  charge= 14.4821  magn=  1.3717
     atom  24 (R=0.179)  charge= 14.4821  magn=  1.3717
     atom  25 (R=0.179)  charge= 14.4821  magn=  1.3717
     atom  26 (R=0.179)  charge= 14.4821  magn=  1.3717
     atom  27 (R=0.179)  charge= 14.4574  magn=  1.6812
     atom  28 (R=0.179)  charge= 14.4574  magn=  1.6812
     atom  29 (R=0.179)  charge= 14.3696  magn=  2.4328
     atom  30 (R=0.179)  charge=  2.0519  magn= -0.0839
     atom  31 (R=0.179)  charge=  2.0503  magn= -0.0748
     atom  32 (R=0.179)  charge=  2.0503  magn= -0.0748

[...]
Si            0.7516000819        0.5000000000        0.0000000000
End final coordinates

     Writing config-only to output data dir ./file.save/

     Final scf calculation at the relaxed structure.
     The G-vectors are recalculated for the final unit cell
     Results may differ from those at the preceding step.

     Using Slab Decomposition

     bravais-lattice index     =            0
     lattice parameter (alat)  =      10.6864  a.u.
     unit-cell volume          =    2381.8207 (a.u.)^3
     number of atoms/cell      =           32
     number of atomic types    =            2
     number of electrons       =       428.00
     number of Kohn-Sham states=          257
     kinetic-energy cutoff     =      54.0000  Ry
     charge density cutoff     =     432.0000  Ry
     scf convergence threshold =      1.0E-10
     mixing beta               =       0.7000
     number of iterations used =            8  plain     mixing
     press convergence thresh. =      5.0E-01
     Exchange-correlation= PBE
                           (   1   4   3   4   0   0   0)

     GPU acceleration is ACTIVE.

     Message from routine print_cuda_info:
     High GPU oversubscription detected. Are you sure this is what you want?

     celldm(1)=  10.686401  celldm(2)=   0.000000  celldm(3)=   0.000000
     celldm(4)=   0.000000  celldm(5)=   0.000000  celldm(6)=   0.000000

     crystal axes: (cart. coord. in units of alat)
               a(1) = (   1.984584   0.000000   0.000000 )
               a(2) = (   0.000000   0.991682   0.000000 )
               a(3) = (   0.000000   0.000000   0.991682 )

     reciprocal axes: (cart. coord. in units 2 pi/alat)
               b(1) = (  0.503884  0.000000  0.000000 )
               b(2) = (  0.000000  1.008387  0.000000 )
               b(3) = (  0.000000  0.000000  1.008387 )

     PseudoPot. # 1 for Si read from file:
     ./Si.pbe-n-rrkjus_psl.1.0.0.UPF
     MD5 check sum: 0b0bb1205258b0d07b9f9672cf965d36
     Pseudo is Ultrasoft + core correction, Zval =  4.0
     Generated using "atomic" code by A. Dal Corso  v.5.1
     Using radial grid of 1141 points,  6 beta functions with:
                l(1) =   0
                l(2) =   0
                l(3) =   1
                l(4) =   1
                l(5) =   2
                l(6) =   2
     Q(r) pseudized with 0 coefficients

     PseudoPot. # 2 for Fe read from file:
     ./Fe.pbe-spn-kjpaw_psl.0.2.1.UPF
     MD5 check sum: e86618425769142926afa95317d90200
     Pseudo is Projector augmented-wave + core cor, Zval = 16.0
     Generated using "atomic" code by A. Dal Corso  v.5.0.99 svn rev. 10869
     Shape of augmentation charge: PSQ
     Using radial grid of 1191 points,  6 beta functions with:
                l(1) =   0
                l(2) =   0
                l(3) =   1
                l(4) =   1
                l(5) =   2
                l(6) =   2
     Q(r) pseudized with 0 coefficients

     atomic species   valence    mass     pseudopotential
        Si             4.00    28.08500     Si( 1.00)
        Fe            16.00    55.84500     Fe( 1.00)

     Starting magnetic structure
     atomic species   magnetization
        Si          -0.033
        Fe           0.128

     16 Sym. Ops., with inversion, found

   Cartesian axes

     site n.     atom                  positions (alat units)
         1           Fe  tau(   1) = (   0.4951402   0.4958412   0.4958412  )
         2           Fe  tau(   2) = (   0.4955016   0.9916823   0.9916823  )
         3           Fe  tau(   3) = (   0.9922921   0.4958412   0.9916823  )
         4           Fe  tau(   4) = (   0.9922921   0.9916823   0.4958412  )
         5           Fe  tau(   5) = (   0.2466064   0.2482611   0.2482611  )
         6           Fe  tau(   6) = (   0.2466064   0.7434212   0.7434212  )
         7           Fe  tau(   7) = (   0.7416653   0.2485362   0.7431461  )
         8           Fe  tau(   8) = (   0.7416653   0.7431461   0.2485362  )
         9           Fe  tau(   9) = (   0.7416653   0.7431461   0.7431461  )
        10           Fe  tau(  10) = (   0.7416653   0.2485362   0.2485362  )
        11           Fe  tau(  11) = (   0.2466064   0.7434212   0.2482611  )
        12           Fe  tau(  12) = (   0.2466064   0.2482611   0.7434212  )
        13           Si  tau(  13) = (   0.0000000   0.0000000   0.0000000  )
        14           Si  tau(  14) = (   0.0000000   0.4958412   0.4958412  )
        15           Si  tau(  15) = (   0.4929705   0.0000000   0.4958412  )
        16           Si  tau(  16) = (   0.4929705   0.4958412   0.0000000  )
        17           Fe  tau(  17) = (   1.4894439   0.4958412   0.4958412  )
        18           Fe  tau(  18) = (   1.4890825   0.9916823   0.9916823  )
        19           Fe  tau(  19) = (   1.9845841   0.4958412   0.9916823  )
        20           Fe  tau(  20) = (   1.9845841   0.9916823   0.4958412  )
        21           Fe  tau(  21) = (   1.2429188   0.2485362   0.2485362  )
        22           Fe  tau(  22) = (   1.2429188   0.7431461   0.7431461  )
        23           Fe  tau(  23) = (   1.7379777   0.2482611   0.7434212  )
        24           Fe  tau(  24) = (   1.7379777   0.7434212   0.2482611  )
        25           Fe  tau(  25) = (   1.7379777   0.7434212   0.7434212  )
        26           Fe  tau(  26) = (   1.7379777   0.2482611   0.2482611  )
        27           Fe  tau(  27) = (   1.2429188   0.7431461   0.2485362  )
        28           Fe  tau(  28) = (   1.2429188   0.2485362   0.7431461  )
        29           Fe  tau(  29) = (   0.9922921   0.0000000   0.0000000  )
        30           Si  tau(  30) = (   0.9922921   0.4958412   0.4958412  )
        31           Si  tau(  31) = (   1.4916136   0.0000000   0.4958412  )
        32           Si  tau(  32) = (   1.4916136   0.4958412   0.0000000  )

     number of k points=    18  Marzari-Vanderbilt smearing, width (Ry)=  0.0050
                       cart. coord. in units 2pi/alat
        k(    1) = (   0.0000000   0.0000000   0.0000000), wk =   0.0080000
        k(    2) = (   0.0000000   0.0000000   0.2016775), wk =   0.0320000
        k(    3) = (   0.0000000   0.0000000   0.4033550), wk =   0.0320000
        k(    4) = (   0.0000000   0.2016775   0.2016775), wk =   0.0320000
        k(    5) = (   0.0000000   0.2016775   0.4033550), wk =   0.0640000
        k(    6) = (   0.0000000   0.4033550   0.4033550), wk =   0.0320000
        k(    7) = (   0.1007768   0.0000000   0.0000000), wk =   0.0160000
        k(    8) = (   0.1007768   0.0000000   0.2016775), wk =   0.0640000
        k(    9) = (   0.1007768   0.0000000   0.4033550), wk =   0.0640000
        k(   10) = (   0.1007768   0.2016775   0.2016775), wk =   0.0640000
        k(   11) = (   0.1007768   0.2016775   0.4033550), wk =   0.1280000
        k(   12) = (   0.1007768   0.4033550   0.4033550), wk =   0.0640000
        k(   13) = (   0.2015536   0.0000000   0.0000000), wk =   0.0160000
        k(   14) = (   0.2015536   0.0000000   0.2016775), wk =   0.0640000
        k(   15) = (   0.2015536   0.0000000   0.4033550), wk =   0.0640000
        k(   16) = (   0.2015536   0.2016775   0.2016775), wk =   0.0640000
        k(   17) = (   0.2015536   0.2016775   0.4033550), wk =   0.1280000
        k(   18) = (   0.2015536   0.4033550   0.4033550), wk =   0.0640000

     Check: negative core charge=   -0.000066
     Generating pointlists ...

     Initial potential from superposition of free atoms

     starting charge     427.9851, renormalised to     428.0000
     Starting wfcs are  353 randomized atomic wfcs
     Checking if some PAW data can be deallocated...

     Self-consistent Calculation

[...]

     iteration # 13     ecut=    54.00 Ry     beta= 0.70
     Davidson diagonalization with overlap
     c_bands:  2 eigenvalues not converged
     c_bands:  1 eigenvalues not converged
     ethr =  2.51E-06,  avg # of iterations =  6.2

[...]

     total energy              =   -8312.15532541 Ry
     estimated scf accuracy    <          1.1E-10 Ry

[...]

     iteration # 52     ecut=    54.00 Ry     beta= 0.70
     Davidson diagonalization with overlap
     ethr =  1.00E-13,  avg # of iterations =  1.0

[...]

     Magnetic moment per site  (integrated on atomic sphere of radius R)
     atom   1 (R=0.177)  charge= 14.3553  magn=  2.4172
     atom   2 (R=0.177)  charge= 14.3441  magn=  2.5074
     atom   3 (R=0.177)  charge= 14.3361  magn=  2.5157
     atom   4 (R=0.177)  charge= 14.3361  magn=  2.5157
     atom   5 (R=0.177)  charge= 14.4544  magn=  1.3036
     atom   6 (R=0.177)  charge= 14.4544  magn=  1.3036
     atom   7 (R=0.177)  charge= 14.4189  magn=  1.6456
     atom   8 (R=0.177)  charge= 14.4189  magn=  1.6456
     atom   9 (R=0.177)  charge= 14.4189  magn=  1.6456
     atom  10 (R=0.177)  charge= 14.4189  magn=  1.6456
     atom  11 (R=0.177)  charge= 14.4544  magn=  1.3036
     atom  12 (R=0.177)  charge= 14.4544  magn=  1.3036
     atom  13 (R=0.177)  charge=  2.0210  magn= -0.0637
     atom  14 (R=0.177)  charge=  2.0263  magn= -0.0581
     atom  15 (R=0.177)  charge=  2.0202  magn= -0.0683
     atom  16 (R=0.177)  charge=  2.0202  magn= -0.0683
     atom  17 (R=0.177)  charge= 14.3553  magn=  2.4172
     atom  18 (R=0.177)  charge= 14.3441  magn=  2.5074
     atom  19 (R=0.177)  charge= 14.3489  magn=  2.4940
     atom  20 (R=0.177)  charge= 14.3489  magn=  2.4940
     atom  21 (R=0.177)  charge= 14.4189  magn=  1.6456
     atom  22 (R=0.177)  charge= 14.4189  magn=  1.6456
     atom  23 (R=0.177)  charge= 14.4544  magn=  1.3036
     atom  24 (R=0.177)  charge= 14.4544  magn=  1.3036
     atom  25 (R=0.177)  charge= 14.4544  magn=  1.3036
     atom  26 (R=0.177)  charge= 14.4544  magn=  1.3036
     atom  27 (R=0.177)  charge= 14.4189  magn=  1.6456
     atom  28 (R=0.177)  charge= 14.4189  magn=  1.6456
     atom  29 (R=0.177)  charge= 14.3197  magn=  2.4098
     atom  30 (R=0.177)  charge=  2.0131  magn= -0.0778
     atom  31 (R=0.177)  charge=  2.0202  magn= -0.0683
     atom  32 (R=0.177)  charge=  2.0202  magn= -0.0683

     End of self-consistent calculation

 ------ SPIN UP ------------

[...]

 ------ SPIN DOWN ----------

[...]

          k = 0.2016 0.4034 0.4034 ( 15939 PWs)   bands (ev):

   -67.8353 -67.8316 -67.8288 -67.8273 -67.8261 -67.8248 -67.8231 -67.8214
   -67.6759 -67.6743 -67.6577 -67.6528 -67.6506 -67.6502 -67.6486 -67.6476
   -67.6465 -67.6452 -67.6314 -67.6293 -67.5178 -67.5177 -67.4166 -67.4161
   -67.4159 -34.0522 -34.0516 -34.0488 -34.0456 -34.0370 -34.0312 -34.0256
   -34.0178 -34.0165 -34.0159 -34.0094 -34.0082 -33.9809 -33.9809 -33.9682
   -33.9677 -33.9668 -33.9631 -33.9479 -33.9449 -33.9397 -33.9359 -33.9344
   -33.9197 -33.8775 -33.8760 -33.8686 -33.8565 -33.8533 -33.8496 -33.8465
   -33.8415 -33.8408 -33.8383 -33.8331 -33.8188 -33.8183 -33.8176 -33.8112
   -33.8039 -33.8015 -33.7951 -33.7740 -33.7674 -33.7627 -33.7584 -33.7582
   -33.7515 -33.7126 -33.7090 -33.6954 -33.6952 -33.6884 -33.6848 -33.6834
   -33.6816 -33.6613 -33.6571 -33.6569 -33.6505 -33.5878 -33.5870 -33.5831
   -33.5825 -33.5412 -33.5396 -33.5128 -33.5097 -33.5041 -33.4929 -33.4691
   -33.4645 -33.4631 -33.4264 -33.4102   8.0274   8.2736   8.6329   8.6495
     8.7367   8.8756   8.9689  11.2226  11.4684  11.6396  11.7015  11.7801
    12.1625  12.1823  12.2799  13.3945  13.5471  13.7228  13.7796  13.8726
    13.9132  14.0876  14.1648  14.1909  14.1969  14.2239  14.2816  14.3142
    14.3419  15.2206  15.2914  15.3442  15.3875  15.4444  15.4802  15.5383
    15.6068  15.6407  15.7325  15.7841  15.8891  15.9336  15.9378  15.9704
    15.9929  16.0140  16.0443  16.0795  16.1122  16.1300  16.1492  16.1671
    16.1777  16.1912  16.2332  16.2584  16.2585  16.3107  16.3469  16.4094
    16.4215  16.4243  16.4992  16.5182  16.5641  16.6405  16.6762  16.6786
    16.6954  16.7322  16.7896  16.7998  16.8083  16.8204  16.8533  17.2697
    17.2871  17.3577  17.3816  17.3975  17.4174  17.4356  17.4498  17.4826
    17.4875  17.5455  17.5810  17.6079  17.6432  17.6547  17.7190  17.7396
    17.7701  17.8158  17.8695  17.9362  18.7726  18.9643  18.9758  19.0148
    19.0731  19.0778  19.1441  19.1817  19.1825  19.2015  19.2026  19.2040
    19.2389  19.2603  19.2740  19.2915  19.2917  19.3178  19.3291  19.3318
    19.3367  19.3424  19.3506  19.3879  19.4077  19.4102  19.4109  19.4179
    19.4310  19.4371  19.4665  19.4735  19.4864  19.4958  19.5201  19.5529
    19.5610  19.6129  19.6554  19.7073  19.7125  19.8122  19.9204  20.0785
    20.2962  20.7758  21.0395  21.1700  21.2054  21.2590  21.2711  21.3029
    21.4163  21.5610  21.7661  21.8415  21.9217  22.1505  22.4070  22.4893
    22.8069

     the Fermi energy is    18.0265 ev

!    total energy              =   -8312.15532541 Ry
     estimated scf accuracy    <          1.0E-10 Ry
     smearing contrib. (-TS)   =       0.00109493 Ry
     internal energy E=F+TS    =   -8312.15642034 Ry

     The total energy is F=E-TS. E is the sum of the following terms:
     one-electron contribution =   -3188.00561388 Ry
     hartree contribution      =    1877.99010647 Ry
     xc contribution           =    -915.89164081 Ry
     ewald contribution        =   -4182.50047241 Ry
     one-center paw contrib.   =   -1903.74879971 Ry

     total magnetization       =    44.50 Bohr mag/cell
     absolute magnetization    =    48.15 Bohr mag/cell

     convergence has been achieved in  52 iterations

     negative rho (up, down):  0.000E+00 1.461E-03

     Forces acting on atoms (cartesian axes, Ry/au):

     atom    1 type  2   force =    -0.00002746    0.00000000   -0.00000000
     atom    2 type  2   force =     0.00003609    0.00000000   -0.00000000
     atom    3 type  2   force =     0.00000000    0.00000000    0.00000000
     atom    4 type  2   force =     0.00000000    0.00000000    0.00000000
     atom    5 type  2   force =    -0.00006835   -0.00007895   -0.00007895
     atom    6 type  2   force =    -0.00006835    0.00007895    0.00007895
     atom    7 type  2   force =     0.00006504   -0.00008122    0.00008122
     atom    8 type  2   force =     0.00006504    0.00008122   -0.00008122
     atom    9 type  2   force =     0.00006504    0.00008122    0.00008122
     atom   10 type  2   force =     0.00006504   -0.00008122   -0.00008122
     atom   11 type  2   force =    -0.00006835    0.00007895   -0.00007895
     atom   12 type  2   force =    -0.00006835   -0.00007895    0.00007895
     atom   13 type  1   force =     0.00000000    0.00000000    0.00000000
     atom   14 type  1   force =     0.00000000    0.00000000    0.00000000
     atom   15 type  1   force =     0.00014695    0.00000000    0.00000000
     atom   16 type  1   force =     0.00014695    0.00000000    0.00000000
     atom   17 type  2   force =     0.00002746    0.00000000   -0.00000000
     atom   18 type  2   force =    -0.00003609   -0.00000000   -0.00000000
     atom   19 type  2   force =     0.00000000    0.00000000    0.00000000
     atom   20 type  2   force =     0.00000000    0.00000000    0.00000000
     atom   21 type  2   force =    -0.00006504   -0.00008122   -0.00008122
     atom   22 type  2   force =    -0.00006504    0.00008122    0.00008122
     atom   23 type  2   force =     0.00006835   -0.00007895    0.00007895
     atom   24 type  2   force =     0.00006835    0.00007895   -0.00007895
     atom   25 type  2   force =     0.00006835    0.00007895    0.00007895
     atom   26 type  2   force =     0.00006835   -0.00007895   -0.00007895
     atom   27 type  2   force =    -0.00006504    0.00008122   -0.00008122
     atom   28 type  2   force =    -0.00006504   -0.00008122    0.00008122
     atom   29 type  2   force =     0.00000000    0.00000000    0.00000000
     atom   30 type  1   force =     0.00000000    0.00000000    0.00000000
     atom   31 type  1   force =    -0.00014695    0.00000000    0.00000000
     atom   32 type  1   force =    -0.00014695    0.00000000    0.00000000

     Total force =     0.000606     Total SCF correction =     0.000045

     Computing stress (Cartesian axis) and pressure

     negative rho (up, down):  0.000E+00 1.461E-03
          total   stress  (Ry/bohr**3)                   (kbar)     P=       -4.46
  -0.00002860   0.00000000   0.00000000           -4.21        0.00        0.00
   0.00000000  -0.00003115   0.00000000            0.00       -4.58        0.00
   0.00000000   0.00000000  -0.00003115            0.00        0.00       -4.58

     Writing all to output data dir ./file.save/

     General routines
                                       34.54s GPU  (    6996 calls)
                                     6108.13s GPU  ( 1410922 calls)

     Parallel routines

   This run was terminated on:  11:13:37  28Nov2022

   JOB DONE.