     Program PWSCF v.7.1 starts on 10Nov2022 at 17:30:25
        Git branch: master
        Last git commit: ce561e80fa51fbc2904c59db0bf7fc0b825e1bb9
        Last git commit date: Thu Jun 16 14:15:26 2022 +0000
        Last git commit subject: Merge branch 'master-qe-7.1' into 'master'

     Reading input from Fe3Si.in

     Current dimensions of program PWSCF are:
     Max number of different atomic species (ntypx) = 10
     Max number of k-points (npk) =  40000
     Max angular momentum in pseudopotentials (lmaxx) =  4
     Message from routine volume:
     axis vectors are left-handed
     file Fe.pbe-spn-kjpaw_psl.0.2.1.UPF: wavefunction(s)  3D renormalized

     IMPORTANT: XC functional enforced from input :
     Exchange-correlation= PBE
                           (   1   4   3   4   0   0   0)
     Any further DFT definition will be discarded
     Please, verify this is what you really want

     Message from routine setup:
     using ibrav=0 with symmetry is DISCOURAGED, use correct ibrav instead

     Subspace diagonalization in iterative solution of the eigenvalue problem:
     a serial algorithm will be used

     Using Slab Decomposition

     bravais-lattice index     =            0
     lattice parameter (alat)  =      10.6864  a.u.
     unit-cell volume          =     296.4936 (a.u.)^3
     number of atoms/cell      =            4
     number of atomic types    =            2
     number of electrons       =        52.00
     number of Kohn-Sham states=           31
     kinetic-energy cutoff     =      54.0000  Ry
     charge density cutoff     =     432.0000  Ry
     scf convergence threshold =      1.0E-08
     mixing beta               =       0.7000
     number of iterations used =            8  plain     mixing
     Exchange-correlation= PBE
                           (   1   4   3   4   0   0   0)

     celldm(1)=  10.686401  celldm(2)=   0.000000  celldm(3)=   0.000000
     celldm(4)=   0.000000  celldm(5)=   0.000000  celldm(6)=   0.000000

     crystal axes: (cart. coord. in units of alat)
               a(1) = (   0.495257   0.495257   0.000000 )
               a(2) = (   0.495257   0.000000   0.495257 )
               a(3) = (   0.000000   0.495257   0.495257 )

     reciprocal axes: (cart. coord. in units 2 pi/alat)
               b(1) = (  1.009578  1.009578 -1.009578 )
               b(2) = (  1.009578 -1.009578  1.009578 )
               b(3) = ( -1.009578  1.009578  1.009578 )

     PseudoPot. # 1 for Si read from file:
     ./Si.pbe-n-rrkjus_psl.1.0.0.UPF
     MD5 check sum: 0b0bb1205258b0d07b9f9672cf965d36
     Pseudo is Ultrasoft + core correction, Zval =  4.0
     Generated using "atomic" code by A. Dal Corso  v.5.1
     Using radial grid of 1141 points,  6 beta functions with:
                l(1) =   0
                l(2) =   0
                l(3) =   1
                l(4) =   1
                l(5) =   2
                l(6) =   2
     Q(r) pseudized with 0 coefficients

     PseudoPot. # 2 for Fe read from file:
     ./Fe.pbe-spn-kjpaw_psl.0.2.1.UPF
     MD5 check sum: e86618425769142926afa95317d90200
     Pseudo is Projector augmented-wave + core cor, Zval = 16.0
     Generated using "atomic" code by A. Dal Corso  v.5.0.99 svn rev. 10869
     Shape of augmentation charge: PSQ
     Using radial grid of 1191 points,  6 beta functions with:
                l(1) =   0
                l(2) =   0
                l(3) =   1
                l(4) =   1
                l(5) =   2
                l(6) =   2
     Q(r) pseudized with 0 coefficients

     atomic species   valence    mass     pseudopotential
        Si             4.00    28.08500     Si( 1.00)
        Fe            16.00    55.84500     Fe( 1.00)

     Starting magnetic structure
     atomic species   magnetization
        Si           1.000
        Fe           1.000

     48 Sym. Ops., with inversion, found

   Cartesian axes

     site n.     atom                  positions (alat units)
         1           Fe  tau(   1) = (   0.4952566   0.4952566   0.4952566  )
         2           Fe  tau(   2) = (   0.2476283   0.2476283   0.2476283  )
         3           Fe  tau(   3) = (   0.7428850   0.7428850   0.7428850  )
         4           Si  tau(   4) = (   0.0000000   0.0000000   0.0000000  )

     number of k points=    10  Marzari-Vanderbilt smearing, width (Ry)=  0.0050
                       cart. coord. in units 2pi/alat
        k(    1) = (   0.0000000   0.0000000   0.0000000), wk =   0.0080000
        k(    2) = (  -0.2019155   0.2019155   0.2019155), wk =   0.0640000
        k(    3) = (  -0.4038310   0.4038310   0.4038310), wk =   0.0640000
        k(    4) = (   0.0000000   0.0000000   0.4038310), wk =   0.0480000
        k(    5) = (  -0.2019155   0.2019155   0.6057465), wk =   0.1920000
        k(    6) = (   0.6057465  -0.6057465  -0.2019155), wk =   0.1920000
        k(    7) = (   0.4038310  -0.4038310   0.0000000), wk =   0.0960000
        k(    8) = (   0.0000000   0.0000000   0.8076621), wk =   0.0480000
        k(    9) = (   0.8076621  -0.8076621   0.0000000), wk =   0.0960000
        k(   10) = (   1.0095776  -0.6057465  -0.2019155), wk =   0.1920000

     Check: negative core charge=   -0.000063
     Generating pointlists ...
     new r_m :   0.1769 (alat units)  1.8907 (a.u.) for type    1
     new r_m :   0.1769 (alat units)  1.8907 (a.u.) for type    2

     Initial potential from superposition of free atoms

     starting charge      51.9981, renormalised to      52.0000
     Starting wfcs are   43 randomized atomic wfcs
     Checking if some PAW data can be deallocated...

     Self-consistent Calculation

     iteration #  1     ecut=    54.00 Ry     beta= 0.70
     Davidson diagonalization with overlap
     ethr =  1.00E-02,  avg # of iterations =  2.9

     negative rho (up, down):  0.000E+00 1.783E-04

     total energy              =    -996.83214357 Ry
     estimated scf accuracy    <      12.80538590 Ry

     total magnetization       =    10.00 Bohr mag/cell
     absolute magnetization    =    13.43 Bohr mag/cell

[...]

     iteration #  6     ecut=    54.00 Ry     beta= 0.70
     Davidson diagonalization with overlap
     ethr =  1.37E-03,  avg # of iterations =  3.5
     Minimization algorithm failed to find Fermi energy: reverting to bisection
     Possible cause: smearing is larger than the electronic band-gap.

[...]

     total energy              =    -999.30084671 Ry
     estimated scf accuracy    <       0.00000003 Ry

[...]

     iteration # 17     ecut=    54.00 Ry     beta= 0.70
     Davidson diagonalization with overlap
     ethr =  5.79E-11,  avg # of iterations =  5.2

[...]

     Magnetic moment per site  (integrated on atomic sphere of radius R)
     atom   1 (R=0.177)  charge= 14.3542  magn=  2.5394
     atom   2 (R=0.177)  charge= 14.4604  magn=  1.3432
     atom   3 (R=0.177)  charge= 14.4604  magn=  1.3432
     atom   4 (R=0.177)  charge=  2.0288  magn= -0.0596

     End of self-consistent calculation

 ------ SPIN UP ------------

          k = 0.0000 0.0000 0.0000 (  1989 PWs)   bands (ev):

   -70.6401 -69.4315 -69.4136 -36.6978 -36.6978 -36.6978 -35.5347 -35.5347
   -35.5347 -35.4596 -35.4596 -35.4596   6.3970  13.3747  13.3747  13.6426
    13.6426  13.6426  14.7588  14.7588  14.7588  16.7650  16.7650  17.3336
    17.3336  17.3336  17.7365  17.7365  21.7685  22.2614  22.2614

          k =-0.2019 0.2019 0.2019 (  1982 PWs)   bands (ev):

[...]

 ------ SPIN DOWN ----------

[...]

          k =-0.2019 0.2019 0.6057 (  1984 PWs)   bands (ev):

[...]

          k = 1.0096-0.6057-0.2019 (  1982 PWs)   bands (ev):

   -67.8406 -67.8359 -67.6331 -34.0961 -34.0467 -34.0209 -33.9825 -33.9245
   -33.9185 -33.7108 -33.6825 -33.6651   9.1179  12.0981  13.0816  14.0201
    15.1332  16.0344  16.1839  16.3134  16.9686  17.1285  17.1830  17.8888
    18.7846  19.0084  19.2225  19.3429  19.4793  19.9068  19.9550

     the Fermi energy is    17.9860 ev

!    total energy              =    -999.30084673 Ry
     estimated scf accuracy    <          4.9E-09 Ry
     smearing contrib. (-TS)   =       0.00012746 Ry
     internal energy E=F+TS    =    -999.30097418 Ry

     The total energy is F=E-TS. E is the sum of the following terms:
     one-electron contribution =    -384.02179999 Ry
     hartree contribution      =     226.56158068 Ry
     xc contribution           =    -110.94283603 Ry
     ewald contribution        =    -502.44947040 Ry
     one-center paw contrib.   =    -228.44844844 Ry

     total magnetization       =     5.07 Bohr mag/cell
     absolute magnetization    =     5.49 Bohr mag/cell

     convergence has been achieved in  17 iterations

     negative rho (up, down):  0.000E+00 1.299E-04

     Forces acting on atoms (cartesian axes, Ry/au):

     atom    1 type  2   force =     0.00000000    0.00000000   -0.00000000
     atom    2 type  2   force =     0.00000000    0.00000000    0.00000000
     atom    3 type  2   force =     0.00000000   -0.00000000   -0.00000000
     atom    4 type  1   force =     0.00000000   -0.00000000    0.00000000

     Total force =     0.000000     Total SCF correction =     0.000000

     Computing stress (Cartesian axis) and pressure

     negative rho (up, down):  0.000E+00 1.299E-04
          total   stress  (Ry/bohr**3)                   (kbar)     P=       -5.24
  -0.00003561   0.00000000   0.00000000           -5.24        0.00        0.00
   0.00000000  -0.00003561  -0.00000000            0.00       -5.24       -0.00
   0.00000000  -0.00000000  -0.00003561            0.00       -0.00       -5.24

     Writing all to output data dir ./file.save/

     General routines

     Parallel routines

   This run was terminated on:  17:32: 5  10Nov2022

   JOB DONE.