     Program PWSCF v.6.8 starts on  3Dec2022 at 20:35:51

     R & G space division:  proc/nbgrp/npool/nimage =      32

     Reading input from b54_Fe49_Si5.in

     Current dimensions of program PWSCF are:
     Max number of different atomic species (ntypx) = 10
     Max number of k-points (npk) =  40000
     Max angular momentum in pseudopotentials (lmaxx) =  4
     file Fe.pbe-spn-kjpaw_psl.0.2.1.UPF: wavefunction(s)  3D renormalized

     IMPORTANT: XC functional enforced from input :
     Exchange-correlation= PBE
                           (   1   4   3   4   0   0   0)
     Any further DFT definition will be discarded
     Please, verify this is what you really want

     Message from routine setup:
     using ibrav=0 with symmetry is DISCOURAGED, use correct ibrav instead

     Using Slab Decomposition

     bravais-lattice index     =            0
     lattice parameter (alat)  =      16.1774  a.u.
     unit-cell volume          =    4233.7721 (a.u.)^3
     number of atoms/cell      =           54
     number of atomic types    =            2
     number of electrons       =       804.00
     number of Kohn-Sham states=          482
     kinetic-energy cutoff     =      65.0000  Ry
     charge density cutoff     =     450.0000  Ry
     scf convergence threshold =      1.0E-08
     mixing beta               =       0.7000
     number of iterations used =            8  plain     mixing
     Exchange-correlation= PBE
                           (   1   4   3   4   0   0   0)

     celldm(1)=  16.177416  celldm(2)=   0.000000  celldm(3)=   0.000000
     celldm(4)=   0.000000  celldm(5)=   0.000000  celldm(6)=   0.000000

     crystal axes: (cart. coord. in units of alat)
               a(1) = (   1.000000   0.000000   0.000000 )
               a(2) = (   0.000000   1.000000   0.000000 )
               a(3) = (   0.000000   0.000000   1.000000 )

     reciprocal axes: (cart. coord. in units 2 pi/alat)
               b(1) = (  1.000000  0.000000  0.000000 )
               b(2) = (  0.000000  1.000000  0.000000 )
               b(3) = (  0.000000  0.000000  1.000000 )

     PseudoPot. # 1 for Fe read from file:
     ./Fe.pbe-spn-kjpaw_psl.0.2.1.UPF
     MD5 check sum: e86618425769142926afa95317d90200
     Pseudo is Projector augmented-wave + core cor, Zval = 16.0
     Generated using "atomic" code by A. Dal Corso  v.5.0.99 svn rev. 10869
     Shape of augmentation charge: PSQ
     Using radial grid of 1191 points,  6 beta functions with:
                l(1) =   0
                l(2) =   0
                l(3) =   1
                l(4) =   1
                l(5) =   2
                l(6) =   2
     Q(r) pseudized with 0 coefficients

     PseudoPot. # 2 for Si read from file:
     ./Si.pbe-n-rrkjus_psl.1.0.0.UPF
     MD5 check sum: 0b0bb1205258b0d07b9f9672cf965d36
     Pseudo is Ultrasoft + core correction, Zval =  4.0
     Generated using "atomic" code by A. Dal Corso  v.5.1
     Using radial grid of 1141 points,  6 beta functions with:
                l(1) =   0
                l(2) =   0
                l(3) =   1
                l(4) =   1
                l(5) =   2
                l(6) =   2
     Q(r) pseudized with 0 coefficients

     atomic species   valence    mass     pseudopotential
        Fe            16.00    55.84500     Fe( 1.00)
        Si             4.00    28.08500     Si( 1.00)

     Starting magnetic structure
     atomic species   magnetization
        Fe           1.000
        Si           1.000

     24 Sym. Ops. (no inversion) found

   Cartesian axes

     site n.     atom                  positions (alat units)
         1           Fe  tau(   1) = (   0.0000000   0.0000000   0.0000000  )
         2           Fe  tau(   2) = (   0.0000000   0.0000000   0.3333333  )
         3           Fe  tau(   3) = (   0.0000000   0.0000000   0.6666667  )
         4           Fe  tau(   4) = (   0.3333333   0.0000000   0.0000000  )
         5           Fe  tau(   5) = (   0.6666667   0.0000000   0.0000000  )
         6           Fe  tau(   6) = (   0.0000000   0.3333333   0.0000000  )
         7           Fe  tau(   7) = (   0.0000000   0.6666667   0.0000000  )
         8           Fe  tau(   8) = (   0.1666670   0.1666670   0.5000000  )
         9           Fe  tau(   9) = (   0.1666670   0.1666670   0.8333330  )
        10           Fe  tau(  10) = (   0.5000000   0.1666670   0.1666670  )
        11           Fe  tau(  11) = (   0.8333330   0.1666670   0.1666670  )
        12           Fe  tau(  12) = (   0.1666670   0.5000000   0.1666670  )
        13           Fe  tau(  13) = (   0.1666670   0.8333330   0.1666670  )
        14           Fe  tau(  14) = (   0.0000000   0.3333333   0.3333333  )
        15           Fe  tau(  15) = (   0.0000000   0.6666667   0.6666667  )
        16           Fe  tau(  16) = (   0.0000000   0.6666667   0.3333333  )
        17           Fe  tau(  17) = (   0.0000000   0.3333333   0.6666667  )
        18           Fe  tau(  18) = (   0.3333333   0.0000000   0.3333333  )
        19           Fe  tau(  19) = (   0.6666667   0.0000000   0.6666667  )
        20           Fe  tau(  20) = (   0.3333333   0.0000000   0.6666667  )
        21           Fe  tau(  21) = (   0.6666667   0.0000000   0.3333333  )
        22           Fe  tau(  22) = (   0.3333333   0.3333333   0.0000000  )
        23           Fe  tau(  23) = (   0.6666667   0.6666667   0.0000000  )
        24           Fe  tau(  24) = (   0.6666667   0.3333333   0.0000000  )
        25           Fe  tau(  25) = (   0.3333333   0.6666667   0.0000000  )
        26           Fe  tau(  26) = (   0.1666670   0.5000000   0.5000000  )
        27           Fe  tau(  27) = (   0.1666670   0.8333330   0.5000000  )
        28           Fe  tau(  28) = (   0.1666670   0.5000000   0.8333330  )
        29           Fe  tau(  29) = (   0.5000000   0.1666670   0.5000000  )
        30           Fe  tau(  30) = (   0.5000000   0.1666670   0.8333330  )
        31           Fe  tau(  31) = (   0.8333330   0.1666670   0.5000000  )
        32           Fe  tau(  32) = (   0.5000000   0.5000000   0.1666670  )
        33           Fe  tau(  33) = (   0.8333330   0.5000000   0.1666670  )
        34           Fe  tau(  34) = (   0.5000000   0.8333330   0.1666670  )
        35           Fe  tau(  35) = (   0.3333333   0.3333333   0.3333333  )
        36           Fe  tau(  36) = (   0.6666667   0.6666667   0.6666667  )
        37           Fe  tau(  37) = (   0.6666667   0.6666667   0.3333333  )
        38           Fe  tau(  38) = (   0.3333333   0.3333333   0.6666667  )
        39           Fe  tau(  39) = (   0.6666667   0.3333333   0.6666667  )
        40           Fe  tau(  40) = (   0.3333333   0.6666667   0.3333333  )
        41           Fe  tau(  41) = (   0.3333333   0.6666667   0.6666667  )
        42           Fe  tau(  42) = (   0.6666667   0.3333333   0.3333333  )
        43           Fe  tau(  43) = (   0.8333330   0.8333330   0.8333330  )
        44           Fe  tau(  44) = (   0.8333330   0.8333330   0.5000000  )
        45           Fe  tau(  45) = (   0.5000000   0.5000000   0.8333330  )
        46           Fe  tau(  46) = (   0.8333330   0.5000000   0.8333330  )
        47           Fe  tau(  47) = (   0.5000000   0.8333330   0.5000000  )
        48           Fe  tau(  48) = (   0.5000000   0.8333330   0.8333330  )
        49           Fe  tau(  49) = (   0.8333330   0.5000000   0.5000000  )
        50           Si  tau(  50) = (   0.1666670   0.1666670   0.1666670  )
        51           Si  tau(  51) = (   0.1666670   0.8333330   0.8333330  )
        52           Si  tau(  52) = (   0.8333330   0.1666670   0.8333330  )
        53           Si  tau(  53) = (   0.8333330   0.8333330   0.1666670  )
        54           Si  tau(  54) = (   0.5000000   0.5000000   0.5000000  )

     number of k points=    10  Marzari-Vanderbilt smearing, width (Ry)=  0.0050
                       cart. coord. in units 2pi/alat
        k(    1) = (   0.0000000   0.0000000   0.0000000), wk =   0.0080000
        k(    2) = (   0.0000000   0.0000000   0.2000000), wk =   0.0480000
        k(    3) = (   0.0000000   0.0000000   0.4000000), wk =   0.0480000
        k(    4) = (   0.0000000   0.2000000   0.2000000), wk =   0.0960000
        k(    5) = (   0.0000000   0.2000000   0.4000000), wk =   0.1920000
        k(    6) = (   0.0000000   0.4000000   0.4000000), wk =   0.0960000
        k(    7) = (   0.2000000   0.2000000   0.2000000), wk =   0.0640000
        k(    8) = (   0.2000000   0.2000000   0.4000000), wk =   0.1920000
        k(    9) = (   0.2000000   0.4000000   0.4000000), wk =   0.1920000
        k(   10) = (   0.4000000   0.4000000   0.4000000), wk =   0.0640000

     Check: negative core charge=   -0.000082
     Generating pointlists ...
     new r_m :   0.1191 (alat units)  1.9264 (a.u.) for type    1
     new r_m :   0.1191 (alat units)  1.9264 (a.u.) for type    2

     Initial potential from superposition of free atoms

     starting charge  803.97572, renormalised to  804.00000
     Starting wfcs are  657 randomized atomic wfcs
     Checking if some PAW data can be deallocated...

     Self-consistent Calculation

     iteration #  1     ecut=    65.00 Ry     beta= 0.70
     Davidson diagonalization with overlap
     ethr =  1.00E-02,  avg # of iterations =  2.5

     negative rho (up, down):  0.000E+00 8.075E-03

     total energy              =  -16160.62571180 Ry
     estimated scf accuracy    <     205.41412557 Ry

     total magnetization       =   160.00 Bohr mag/cell
     absolute magnetization    =   212.60 Bohr mag/cell

[...]

     iteration # 17     ecut=    65.00 Ry     beta= 0.70
     Davidson diagonalization with overlap
     c_bands:  1 eigenvalues not converged
     ethr =  4.66E-05,  avg # of iterations =  6.5

[...]

     total energy              =  -16191.56245849 Ry
     estimated scf accuracy    <       0.00000002 Ry

[...]

     iteration # 77     ecut=    65.00 Ry     beta= 0.70
     Davidson diagonalization with overlap
     ethr =  1.52E-12,  avg # of iterations =  1.5

[...]

     Magnetic moment per site  (integrated on atomic sphere of radius R)
     atom   1 (R=0.119)  charge= 14.4987  magn=  1.6114
     atom   2 (R=0.119)  charge= 14.4509  magn=  2.0058
     atom   3 (R=0.119)  charge= 14.4509  magn=  2.0058
     atom   4 (R=0.119)  charge= 14.4509  magn=  2.0058
     atom   5 (R=0.119)  charge= 14.4509  magn=  2.0058
     atom   6 (R=0.119)  charge= 14.4509  magn=  2.0058
     atom   7 (R=0.119)  charge= 14.4509  magn=  2.0058
     atom   8 (R=0.119)  charge= 14.4084  magn=  2.4119
     atom   9 (R=0.119)  charge= 14.4185  magn=  2.3539
     atom  10 (R=0.119)  charge= 14.4084  magn=  2.4119
     atom  11 (R=0.119)  charge= 14.4185  magn=  2.3539
     atom  12 (R=0.119)  charge= 14.4084  magn=  2.4119
     atom  13 (R=0.119)  charge= 14.4185  magn=  2.3539
     atom  14 (R=0.119)  charge= 14.4272  magn=  2.1998
     atom  15 (R=0.119)  charge= 14.4272  magn=  2.1998
     atom  16 (R=0.119)  charge= 14.4272  magn=  2.1998
     atom  17 (R=0.119)  charge= 14.4272  magn=  2.1998
     atom  18 (R=0.119)  charge= 14.4272  magn=  2.1998
[...]
     atom  22 (R=0.119)  charge= 14.4272  magn=  2.1998
     atom  23 (R=0.119)  charge= 14.4272  magn=  2.1998
     atom  24 (R=0.119)  charge= 14.4272  magn=  2.1998
     atom  25 (R=0.119)  charge= 14.4272  magn=  2.1998
     atom  26 (R=0.119)  charge= 14.4120  magn=  2.4232
     atom  27 (R=0.119)  charge= 14.4084  magn=  2.4119
     atom  28 (R=0.119)  charge= 14.4084  magn=  2.4119
     atom  29 (R=0.119)  charge= 14.4120  magn=  2.4232
     atom  30 (R=0.119)  charge= 14.4084  magn=  2.4119
     atom  31 (R=0.119)  charge= 14.4084  magn=  2.4119
     atom  32 (R=0.119)  charge= 14.4120  magn=  2.4232
     atom  33 (R=0.119)  charge= 14.4084  magn=  2.4119
     atom  34 (R=0.119)  charge= 14.4084  magn=  2.4119
     atom  35 (R=0.119)  charge= 14.4449  magn=  2.1511
     atom  36 (R=0.119)  charge= 14.4229  magn=  2.2923
     atom  37 (R=0.119)  charge= 14.4449  magn=  2.1511
     atom  38 (R=0.119)  charge= 14.4229  magn=  2.2923
     atom  39 (R=0.119)  charge= 14.4449  magn=  2.1511
     atom  40 (R=0.119)  charge= 14.4229  magn=  2.2923
     atom  41 (R=0.119)  charge= 14.4449  magn=  2.1511
     atom  42 (R=0.119)  charge= 14.4229  magn=  2.2923
     atom  43 (R=0.119)  charge= 14.4185  magn=  2.3539
     atom  44 (R=0.119)  charge= 14.4084  magn=  2.4119
     atom  45 (R=0.119)  charge= 14.4120  magn=  2.4232
     atom  46 (R=0.119)  charge= 14.4084  magn=  2.4119
     atom  47 (R=0.119)  charge= 14.4120  magn=  2.4232
     atom  48 (R=0.119)  charge= 14.4084  magn=  2.4119
     atom  49 (R=0.119)  charge= 14.4120  magn=  2.4232
     atom  50 (R=0.119)  charge=  2.0790  magn= -0.1078
     atom  51 (R=0.119)  charge=  2.0790  magn= -0.1078
     atom  52 (R=0.119)  charge=  2.0790  magn= -0.1078
     atom  53 (R=0.119)  charge=  2.0790  magn= -0.1078
     atom  54 (R=0.119)  charge=  2.0841  magn= -0.1129

     End of self-consistent calculation

 ------ SPIN UP ------------

          k = 0.0000 0.0000 0.0000 ( 37529 PWs)   bands (ev):

   -70.7373 -70.7330 -70.7330 -70.7330 -70.7183 -70.7075 -70.7075 -70.7071
   -70.7071 -70.7071 -70.7026 -70.7026 -70.7026 -70.7002 -70.7002 -70.7002
   -70.6918 -70.6886 -70.6886 -70.6862 -70.6862 -70.6862 -70.6533 -70.6533
   -70.6533 -70.6507 -70.5622 -70.5622 -70.5622 -70.5616 -70.5589 -70.5589
   -70.5589 -70.5584 -70.5584 -70.5584 -70.5577 -70.5577 -70.5575 -70.5575
   -70.5575 -70.5507 -70.4016 -70.4016 -70.4005 -70.4005 -70.4005 -70.4005
   -70.0694 -36.8977 -36.8923 -36.8923 -36.8923 -36.8921 -36.8921 -36.8843
   -36.8843 -36.8843 -36.8684 -36.8543 -36.8543 -36.8543 -36.8475 -36.8440
   -36.8440 -36.8440 -36.8304 -36.8304 -36.8230 -36.8230 -36.8230 -36.8166
   -36.8166 -36.8166 -36.8098 -36.8098 -36.8098 -36.8070 -36.8011 -36.8011
   -36.7908 -36.7908 -36.7908 -36.7893 -36.7893 -36.7893 -36.7874 -36.7874
   -36.7874 -36.7872 -36.7872 -36.7761 -36.7757 -36.7757 -36.7757 -36.7703
   -36.7703 -36.7703 -36.7641 -36.7641 -36.7599 -36.7599 -36.7599 -36.7391
   -36.7391 -36.7391 -36.7287 -36.7287 -36.7287 -36.7072 -36.7072 -36.7072
   -36.7035 -36.6904 -36.6904 -36.6904 -36.6836 -36.6825 -36.6825 -36.6825
   -36.6605 -36.6605 -36.6605 -36.6254 -36.6254 -36.6130 -36.6130 -36.6130
   -36.6092 -36.6092 -36.6092 -36.5946 -36.5927 -36.5927 -36.5927 -36.5919
   -36.5919 -36.5718 -36.5718 -36.5718 -36.5715 -36.5715 -36.5567 -36.5567
   -36.5567 -36.5548 -36.5519 -36.5519 -36.5519 -36.5491 -36.5491 -36.5491
   -36.5469 -36.5469 -36.5435 -36.5435 -36.5435 -36.5321 -36.5321 -36.5321
   -36.5283 -36.5283 -36.5190 -36.5190 -36.5190 -36.5172 -36.5172 -36.5172
   -36.4956 -36.4956 -36.4956 -36.4942 -36.4942 -36.4942 -36.4674 -36.4404
   -36.4336 -36.4336 -36.4336 -36.4295 -36.4295 -36.4231 -36.4231 -36.4231
   -36.4228 -36.4228 -36.4228 -36.4151 -36.4151 -36.4151 -36.4052 -36.4052
   -36.4052 -36.1268 -36.1268 -36.1268   7.1502   8.0591   8.3318   8.3318
     8.3318  10.6619  10.7050  10.7050  11.2206  11.2206  11.2206  11.6357
    11.6357  11.6357  11.8777  11.9766  11.9766  11.9766  12.2587  12.2587
    12.6395  12.6395  12.6395  12.7423  12.7423  12.8013  12.8013  12.8013
    12.9669  12.9669  12.9825  12.9825  12.9825  12.9993  13.0342  13.0342
    13.0342  13.2121  13.2121  13.2121  13.2874  13.2874  13.3099  13.4357
    13.5009  13.5009  13.5009  13.5510  13.5761  13.5761  13.5761  13.6583
    13.6583  13.6669  13.6669  13.6669  13.7168  13.7168  13.7168  13.7422
    13.8030  13.8030  13.8030  13.8912  13.8912  13.8912  13.9594  13.9594
    13.9594  13.9662  14.0089  14.0089  14.1315  14.1315  14.1315  14.1507
    14.1507  14.1507  14.1836  14.1836  14.2250  14.2250  14.2426  14.2426
    14.2426  14.3033  14.3135  14.3135  14.3135  14.3643  14.3643  14.3643
    14.4834  14.4834  14.4834  14.4859  14.4859  14.4859  14.5220  14.5220
    14.5296  14.5296  14.5296  14.5695  14.5695  14.5695  14.6268  14.6268
    14.6268  14.6467  14.6467  14.6658  14.8107  14.8107  14.8383  14.8524
    14.8524  14.8524  14.8622  14.8622  14.8622  14.9006  14.9006  14.9006
    14.9386  14.9386  14.9410  14.9410  14.9410  15.0131  15.0131  15.0131
    15.0372  15.1702  15.1702  15.1702  15.2261  15.2261  15.2261  15.2434
    15.2434  15.2434  15.4009  15.4690  15.4690  15.4690  15.4857  15.4857
    15.5198  15.5198  15.5198  15.5441  15.5441  15.5725  15.5725  15.5725
    15.6042  15.6042  15.6042  15.6426  15.6426  15.6426  15.7625  15.8867
    15.8867  15.9123  15.9123  15.9123  15.9275  15.9275  15.9275  15.9622
    16.0387  16.0387  16.0387  16.1124  16.1124  16.1124  16.1560  16.1560
    16.1560  16.2020  16.2020  16.2208  16.2208  16.2208  16.2903  16.2903
    16.2920  16.2920  16.2920  16.3303  16.3303  16.3303  16.3700  16.3700
    16.3700  16.3838  16.3838  16.3838  16.3910  16.3910  16.3910  16.4065
    16.4065  16.4065  16.4225  16.4225  16.4276  16.4427  16.4427  16.4427
    16.4448  16.4448  16.4448  16.4810  16.4810  16.4810  16.4905  16.5067
    16.5067  16.5594  16.5633  16.5633  16.5633  16.5651  16.5651  16.6090
    16.6090  16.6090  16.6535  16.6535  16.6535  16.6559  16.6559  16.6966
    16.6966  16.6966  16.7937  16.7937  16.8300  16.8300  16.8300  16.8744
    16.8744  16.8744  16.9424  16.9616  16.9616  17.1066  17.1066  17.1066
    17.3557  17.3557  17.3557  17.4131  17.4131  17.4131  17.5094  17.5094
    17.6863  17.7054  17.7054  17.7054  18.2076  18.3331  18.3331  18.3331
    18.5513  18.5513  18.5513  18.6498  18.9388  18.9388  19.1563  19.1563
    19.1563  19.2265  19.2265  19.2265  19.3940  19.3940  19.3940  19.4651
    19.9105  19.9105

[...]

 ------ SPIN DOWN ----------

[...]

          k = 0.4000 0.4000 0.4000 ( 37494 PWs)   bands (ev):

   -68.1839 -68.0454 -68.0446 -68.0446 -68.0413 -68.0370 -68.0370 -68.0311
   -68.0292 -68.0292 -68.0291 -67.9811 -67.9805 -67.9805 -67.9722 -67.9693
   -67.9693 -67.9679 -67.9628 -67.9628 -67.9628 -67.9600 -67.9600 -67.9588
   -67.9576 -67.9576 -67.9576 -67.9388 -67.9386 -67.9386 -67.9336 -67.8500
   -67.8500 -67.8498 -67.8475 -67.8475 -67.8451 -67.8446 -67.8446 -67.8444
   -67.8434 -67.8434 -67.8426 -67.8167 -67.8167 -67.8139 -67.8138 -67.8138
   -67.8116 -34.3419 -34.3419 -34.3418 -34.2749 -34.2749 -34.2736 -34.2656
   -34.2653 -34.2584 -34.2584 -34.2487 -34.2485 -34.2485 -34.2442 -34.2442
   -34.2405 -34.2359 -34.2326 -34.2326 -34.2211 -34.2163 -34.2163 -34.2061
   -34.2061 -34.2043 -34.1980 -34.1980 -34.1952 -34.1949 -34.1904 -34.1904
   -34.1867 -34.1867 -34.1828 -34.1802 -34.1802 -34.1722 -34.1722 -34.1721
   -34.1678 -34.1678 -34.1644 -34.1627 -34.1586 -34.1586 -34.1562 -34.1562
   -34.1529 -34.1527 -34.1527 -34.1506 -34.1425 -34.1425 -34.1351 -34.1319
   -34.1319 -34.1188 -34.1118 -34.1118 -34.1058 -34.0949 -34.0949 -34.0930
   -34.0915 -34.0915 -34.0827 -34.0782 -34.0782 -34.0755 -34.0665 -34.0665
   -34.0660 -34.0605 -34.0593 -34.0588 -34.0588 -34.0525 -34.0525 -34.0360
   -34.0360 -34.0331 -34.0127 -34.0127 -34.0078 -34.0012 -33.9868 -33.9868
   -33.9849 -33.9829 -33.9827 -33.9827 -33.9811 -33.9811 -33.9692 -33.9692
   -33.9676 -33.9565 -33.9388 -33.9388 -33.9364 -33.9364 -33.9349 -33.9346
   -33.9286 -33.9218 -33.9218 -33.9192 -33.9103 -33.9103 -33.9052 -33.9020
   -33.8980 -33.8980 -33.8963 -33.8938 -33.8938 -33.8890 -33.8825 -33.8825
   -33.8792 -33.8792 -33.8785 -33.8743 -33.8743 -33.8741 -33.8665 -33.8665
   -33.8592 -33.8564 -33.8564 -33.8486 -33.8486 -33.8468 -33.8468 -33.8467
   -33.8429 -33.8393 -33.8393 -33.8362 -33.8361 -33.8361 -33.8319 -33.8317
   -33.8317 -33.8224 -33.8224 -33.8219   7.5295   7.9140   8.2195   8.2195
     8.2832  10.4637  10.4637  10.5028  11.5021  11.6892  11.6892  11.8644
    12.4077  12.4077  12.5398  12.8021  12.8021  12.9611  12.9611  12.9690
    13.1385  13.3396  13.3769  13.3769  13.5152  13.6575  13.6575  13.9543
    13.9543  13.9716  13.9942  13.9956  13.9956  14.1055  14.1580  14.1580
    14.2421  14.2421  14.2648  14.2919  14.2919  14.4762  14.5371  14.5371
    14.6202  14.6557  14.6557  14.8639  14.8639  14.9032  14.9550  14.9864
    14.9864  15.1374  15.1374  15.2505  15.2528  15.2528  15.3069  15.3069
    15.3171  15.4332  15.4332  15.4667  15.4957  15.4957  15.5228  15.5608
    15.5608  15.7092  15.7175  15.7175  15.7409  15.7611  15.7611  15.7631
    15.7924  15.7924  15.7980  15.8082  15.8082  15.9237  15.9237  15.9342
    15.9365  15.9794  15.9794  15.9948  16.0256  16.0256  16.0583  16.0614
    16.0614  16.0971  16.1344  16.1344  16.1875  16.1989  16.1989  16.2414
    16.2414  16.2518  16.2917  16.2917  16.3306  16.3367  16.3864  16.3864
    16.4124  16.4124  16.4376  16.4529  16.4597  16.4597  16.4859  16.4859
    16.5083  16.5083  16.5095  16.5559  16.5698  16.5715  16.5715  16.5884
    16.5986  16.5986  16.6267  16.6267  16.6555  16.6556  16.6556  16.6895
    16.7088  16.7088  16.7208  16.7453  16.7453  16.8553  16.8597  16.8597
    16.9729  16.9895  16.9895  17.0044  17.0561  17.0561  17.2318  17.3233
    17.3233  17.4026  17.4441  17.4525  17.4525  17.5355  17.5355  17.5471
    17.5471  17.6041  17.6671  17.7137  17.7137  17.8064  18.1181  18.1668
    18.1756  18.1756  18.1801  18.2425  18.2425  18.3042  18.3042  18.3153
    18.3523  18.3957  18.3957  18.4439  18.4713  18.4713  18.4754  18.4960
    18.5538  18.5538  18.5721  18.5721  18.6644  18.6794  18.6820  18.6820
    18.6956  18.7053  18.7053  18.8766  18.8968  18.8968  18.9082  18.9206
    18.9206  18.9440  18.9471  18.9471  18.9644  18.9676  18.9676  18.9885
    18.9885  19.0181  19.0181  19.0194  19.0562  19.0562  19.0564  19.0671
    19.0671  19.0902  19.0932  19.1008  19.1008  19.1115  19.1115  19.1349
    19.1440  19.1440  19.1611  19.1636  19.1636  19.1849  19.1849  19.1902
    19.1954  19.1954  19.2312  19.2312  19.2346  19.2503  19.2505  19.2505
    19.2597  19.2650  19.2650  19.2693  19.2817  19.2817  19.2977  19.2977
    19.3017  19.3081  19.3081  19.3596  19.3596  19.3918  19.4415  19.4415
    19.4611  19.4852  19.5164  19.5385  19.5385  19.6846  19.6846  19.7768
    19.7768  19.7898  19.8018  19.8410  19.8444  19.8444  19.9387  19.9387
    20.0254  20.0846  20.0846  20.1563  20.1674  20.1674  20.2902  20.2902
    20.3060  20.3404  20.4779  20.4779  20.6154  20.6154  20.7150  20.7406
    21.0084  21.0084

     the Fermi energy is    17.4501 ev

!    total energy              =  -16191.56245848 Ry
     estimated scf accuracy    <          5.5E-09 Ry
     smearing contrib. (-TS)   =       0.00146988 Ry
     internal energy E=F+TS    =  -16191.56392837 Ry

     The total energy is F=E-TS. E is the sum of the following terms:
     one-electron contribution =   -5998.60965005 Ry
     hartree contribution      =    3510.24166004 Ry
     xc contribution           =   -1738.11792650 Ry
     ewald contribution        =   -8233.71343463 Ry
     one-center paw contrib.   =   -3731.36457723 Ry

     total magnetization       =   107.73 Bohr mag/cell
     absolute magnetization    =   115.09 Bohr mag/cell

     convergence has been achieved in  77 iterations

     negative rho (up, down):  0.000E+00 5.571E-03

     Forces acting on atoms (cartesian axes, Ry/au):

     atom    1 type  1   force =     0.00000000    0.00000000    0.00000000
     atom    2 type  1   force =     0.00000000    0.00000000    0.00074798
     atom    3 type  1   force =     0.00000000    0.00000000   -0.00074798
     atom    4 type  1   force =     0.00074798    0.00000000    0.00000000
     atom    5 type  1   force =    -0.00074798    0.00000000    0.00000000
     atom    6 type  1   force =     0.00000000    0.00074798    0.00000000
     atom    7 type  1   force =     0.00000000   -0.00074798    0.00000000
     atom    8 type  1   force =    -0.00302969   -0.00302969   -0.00479764
     atom    9 type  1   force =    -0.00401392   -0.00401392    0.00401392
     atom   10 type  1   force =    -0.00479764   -0.00302969   -0.00302969
     atom   11 type  1   force =     0.00401392   -0.00401392   -0.00401392
     atom   12 type  1   force =    -0.00302969   -0.00479764   -0.00302969
     atom   13 type  1   force =    -0.00401392    0.00401392   -0.00401392
     atom   14 type  1   force =    -0.00128908    0.00064636    0.00064636
     atom   15 type  1   force =    -0.00128908   -0.00064636   -0.00064636
     atom   16 type  1   force =     0.00128908   -0.00064636    0.00064636
     atom   17 type  1   force =     0.00128908    0.00064636   -0.00064636
     atom   18 type  1   force =     0.00064636   -0.00128908    0.00064636
     atom   19 type  1   force =    -0.00064636   -0.00128908   -0.00064636
     atom   20 type  1   force =     0.00064636    0.00128908   -0.00064636
     atom   21 type  1   force =    -0.00064636    0.00128908    0.00064636
     atom   22 type  1   force =     0.00064636    0.00064636   -0.00128908
     atom   23 type  1   force =    -0.00064636   -0.00064636   -0.00128908
     atom   24 type  1   force =    -0.00064636    0.00064636    0.00128908
     atom   25 type  1   force =     0.00064636   -0.00064636    0.00128908
     atom   26 type  1   force =     0.00305001    0.00000000    0.00000000
     atom   27 type  1   force =    -0.00302969    0.00302969    0.00479764
     atom   28 type  1   force =    -0.00302969    0.00479764    0.00302969
     atom   29 type  1   force =     0.00000000    0.00305001    0.00000000
     atom   30 type  1   force =     0.00479764   -0.00302969    0.00302969
     atom   31 type  1   force =     0.00302969   -0.00302969    0.00479764
     atom   32 type  1   force =     0.00000000    0.00000000    0.00305001
     atom   33 type  1   force =     0.00302969    0.00479764   -0.00302969
     atom   34 type  1   force =     0.00479764    0.00302969   -0.00302969
     atom   35 type  1   force =    -0.00079393   -0.00079393   -0.00079393
     atom   36 type  1   force =     0.00059422    0.00059422    0.00059422
     atom   37 type  1   force =     0.00079393    0.00079393   -0.00079393
     atom   38 type  1   force =    -0.00059422   -0.00059422    0.00059422
     atom   39 type  1   force =     0.00079393   -0.00079393    0.00079393
     atom   40 type  1   force =    -0.00059422    0.00059422   -0.00059422
     atom   41 type  1   force =    -0.00079393    0.00079393    0.00079393
     atom   42 type  1   force =     0.00059422   -0.00059422   -0.00059422
     atom   43 type  1   force =     0.00401392    0.00401392    0.00401392
     atom   44 type  1   force =     0.00302969    0.00302969   -0.00479764
     atom   45 type  1   force =     0.00000000    0.00000000   -0.00305001
     atom   46 type  1   force =     0.00302969   -0.00479764    0.00302969
     atom   47 type  1   force =     0.00000000   -0.00305001    0.00000000
     atom   48 type  1   force =    -0.00479764    0.00302969    0.00302969
     atom   49 type  1   force =    -0.00305001    0.00000000    0.00000000
     atom   50 type  2   force =    -0.00459635   -0.00459635   -0.00459635
     atom   51 type  2   force =    -0.00459635    0.00459635    0.00459635
     atom   52 type  2   force =     0.00459635   -0.00459635    0.00459635
     atom   53 type  2   force =     0.00459635    0.00459635   -0.00459635
     atom   54 type  2   force =     0.00000000    0.00000000    0.00000000

     Total force =     0.032316     Total SCF correction =     0.000345

     Computing stress (Cartesian axis) and pressure

     negative rho (up, down):  0.000E+00 5.571E-03
          total   stress  (Ry/bohr**3)                   (kbar)     P=      -60.81
  -0.00041338   0.00000000   0.00000000          -60.81        0.00        0.00
   0.00000000  -0.00041338   0.00000000            0.00      -60.81        0.00
   0.00000000   0.00000000  -0.00041338            0.00        0.00      -60.81

     Writing output data file ./cryst.save/

     General routines

     Parallel routines

   This run was terminated on:   1:52:45   4Dec2022

   JOB DONE.