     Program PWSCF v.7.1 starts on  1Nov2022 at 11:13:17

     Reading input from Fe.in

     Current dimensions of program PWSCF are:
     Max number of different atomic species (ntypx) = 10
     Max number of k-points (npk) =  40000
     Max angular momentum in pseudopotentials (lmaxx) =  4
     file Fe.pbe-spn-kjpaw_psl.0.2.1.UPF: wavefunction(s)  3D renormalized

     IMPORTANT: XC functional enforced from input :
     Exchange-correlation= PBE
                           (   1   4   3   4   0   0   0)
     Any further DFT definition will be discarded
     Please, verify this is what you really want

     Message from routine setup:
     using ibrav=0 with symmetry is DISCOURAGED, use correct ibrav instead

     Subspace diagonalization in iterative solution of the eigenvalue problem:
     a serial algorithm will be used

     Using Slab Decomposition

     bravais-lattice index     =            0
     lattice parameter (alat)  =       5.4171  a.u.
     unit-cell volume          =      79.4827 (a.u.)^3
     number of atoms/cell      =            1
     number of atomic types    =            1
     number of electrons       =        16.00
     number of Kohn-Sham states=           12
     kinetic-energy cutoff     =      54.0000  Ry
     charge density cutoff     =     432.0000  Ry
     scf convergence threshold =      1.0E-08
     mixing beta               =       0.7000
     number of iterations used =            8  plain     mixing
     energy convergence thresh.=      1.0E-04
     force convergence thresh. =      1.0E-03
     press convergence thresh. =      5.0E-01
     Exchange-correlation= PBE
                           (   1   4   3   4   0   0   0)
     nstep                     =           50

     celldm(1)=   5.417108  celldm(2)=   0.000000  celldm(3)=   0.000000
     celldm(4)=   0.000000  celldm(5)=   0.000000  celldm(6)=   0.000000

     crystal axes: (cart. coord. in units of alat)
               a(1) = (  -0.500000   0.500000   0.500000 )
               a(2) = (   0.500000  -0.500000   0.500000 )
               a(3) = (   0.500000   0.500000  -0.500000 )

     reciprocal axes: (cart. coord. in units 2 pi/alat)
               b(1) = (  0.000000  1.000000  1.000000 )
               b(2) = (  1.000000  0.000000  1.000000 )
               b(3) = (  1.000000  1.000000  0.000000 )

     PseudoPot. # 1 for Fe read from file:
     ./Fe.pbe-spn-kjpaw_psl.0.2.1.UPF
     MD5 check sum: e86618425769142926afa95317d90200
     Pseudo is Projector augmented-wave + core cor, Zval = 16.0
     Generated using "atomic" code by A. Dal Corso  v.5.0.99 svn rev. 10869
     Shape of augmentation charge: PSQ
     Using radial grid of 1191 points,  6 beta functions with:
                l(1) =   0
                l(2) =   0
                l(3) =   1
                l(4) =   1
                l(5) =   2
                l(6) =   2
     Q(r) pseudized with 0 coefficients

     atomic species   valence    mass     pseudopotential
        Fe            16.00    55.84500     Fe( 1.00)

     Starting magnetic structure
     atomic species   magnetization
        Fe           1.000

     48 Sym. Ops., with inversion, found

   Cartesian axes

     site n.     atom                  positions (alat units)
         1           Fe  tau(   1) = (   0.0000000   0.0000000   0.0000000  )

     number of k points=    47  Marzari-Vanderbilt smearing, width (Ry)=  0.0050
                       cart. coord. in units 2pi/alat
        k(    1) = (   0.0000000   0.0000000   0.0000000), wk =   0.0010000
        k(    2) = (   0.1000000   0.1000000   0.0000000), wk =   0.0120000
        k(    3) = (   0.2000000   0.2000000   0.0000000), wk =   0.0120000
        k(    4) = (   0.3000000   0.3000000   0.0000000), wk =   0.0120000
        k(    5) = (   0.4000000   0.4000000   0.0000000), wk =   0.0120000
        k(    6) = (  -0.5000000  -0.5000000   0.0000000), wk =   0.0060000
        k(    7) = (   0.2000000   0.1000000   0.1000000), wk =   0.0240000
        k(    8) = (   0.3000000   0.2000000   0.1000000), wk =   0.0480000
        k(    9) = (   0.4000000   0.3000000   0.1000000), wk =   0.0480000
        k(   10) = (   0.5000000   0.4000000   0.1000000), wk =   0.0480000
        k(   11) = (   0.4000000   0.2000000   0.2000000), wk =   0.0240000
        k(   12) = (   0.5000000   0.3000000   0.2000000), wk =   0.0480000
        k(   13) = (   0.6000000   0.4000000   0.2000000), wk =   0.0240000
        k(   14) = (   0.6000000   0.3000000   0.3000000), wk =   0.0240000
        k(   15) = (   0.2000000   0.2000000   0.2000000), wk =   0.0080000
        k(   16) = (   0.3000000   0.3000000   0.2000000), wk =   0.0240000
        k(   17) = (   0.4000000   0.4000000   0.2000000), wk =   0.0240000
        k(   18) = (   0.5000000   0.5000000   0.2000000), wk =   0.0120000
        k(   19) = (   0.0000000   0.0000000   0.2000000), wk =   0.0060000
        k(   20) = (   0.4000000   0.3000000   0.3000000), wk =   0.0240000
        k(   21) = (   0.5000000   0.4000000   0.3000000), wk =   0.0480000
        k(   22) = (   0.0000000  -0.1000000   0.3000000), wk =   0.0240000
        k(   23) = (   0.6000000   0.4000000   0.4000000), wk =   0.0080000
        k(   24) = (  -0.0000000  -0.2000000   0.4000000), wk =   0.0240000
        k(   25) = (   0.1000000  -0.1000000   0.4000000), wk =   0.0240000
        k(   26) = (   0.0000000  -0.3000000   0.5000000), wk =   0.0240000
        k(   27) = (   0.1000000  -0.2000000   0.5000000), wk =   0.0480000
        k(   28) = (  -1.0000000  -0.4000000  -0.4000000), wk =   0.0120000
        k(   29) = (  -0.9000000  -0.3000000  -0.4000000), wk =   0.0480000
        k(   30) = (  -0.8000000  -0.2000000  -0.4000000), wk =   0.0240000
        k(   31) = (  -0.8000000  -0.3000000  -0.3000000), wk =   0.0240000
        k(   32) = (   0.4000000   0.4000000   0.4000000), wk =   0.0080000
        k(   33) = (   0.5000000   0.5000000   0.4000000), wk =   0.0120000
        k(   34) = (   0.0000000   0.0000000   0.4000000), wk =   0.0060000
        k(   35) = (  -0.0000000  -0.1000000   0.5000000), wk =   0.0240000
        k(   36) = (   0.0000000  -0.2000000   0.6000000), wk =   0.0240000
        k(   37) = (   0.1000000  -0.1000000   0.6000000), wk =   0.0240000
        k(   38) = (  -1.0000000  -0.3000000  -0.3000000), wk =   0.0120000
        k(   39) = (  -0.9000000  -0.2000000  -0.3000000), wk =   0.0480000
        k(   40) = (  -0.8000000  -0.2000000  -0.2000000), wk =   0.0080000
        k(   41) = (  -0.0000000  -0.0000000   0.6000000), wk =   0.0060000
        k(   42) = (   0.0000000  -0.1000000   0.7000000), wk =   0.0240000
        k(   43) = (  -1.0000000  -0.2000000  -0.2000000), wk =   0.0120000
        k(   44) = (  -0.9000000  -0.1000000  -0.2000000), wk =   0.0240000
        k(   45) = (   0.0000000   0.0000000   0.8000000), wk =   0.0060000
        k(   46) = (  -1.0000000  -0.1000000  -0.1000000), wk =   0.0120000
        k(   47) = (  -1.0000000  -1.0000000  -1.0000000), wk =   0.0010000

     Check: negative core charge=   -0.000078
     Generating pointlists ...
     new r_m :   0.3572 (alat units)  1.9352 (a.u.) for type    1

     Initial potential from superposition of free atoms

     starting charge      15.9996, renormalised to      16.0000
     Starting wfcs are   13 randomized atomic wfcs
     Checking if some PAW data can be deallocated...

     Self-consistent Calculation

     iteration #  1     ecut=    54.00 Ry     beta= 0.70
     Davidson diagonalization with overlap
     ethr =  1.00E-02,  avg # of iterations =  3.2

     negative rho (up, down):  0.000E+00 2.280E-04

     total energy              =    -328.33874599 Ry
     estimated scf accuracy    <       3.68036083 Ry

     total magnetization       =     5.22 Bohr mag/cell
     absolute magnetization    =     5.22 Bohr mag/cell

[...]

     Magnetic moment per site  (integrated on atomic sphere of radius R)
     atom   1 (R=0.357)  charge= 14.4209  magn=  2.2056

     End of self-consistent calculation

 ------ SPIN UP ------------

          k = 0.0000 0.0000 0.0000 (   555 PWs)   bands (ev):

   -70.5918 -36.4071 -36.4071 -36.4071   9.1804  15.2556  15.2556  15.2556
    16.3736  16.3736  42.0520  42.0520

[...]

          k =-0.5000-0.5000 0.0000 (   528 PWs)   bands (ev):

[...]

 ------ SPIN DOWN ----------

[...]

     the Fermi energy is    17.4625 ev

!    total energy              =    -329.26286055 Ry
     total all-electron energy =     -2545.559396 Ry
     estimated scf accuracy    <          7.8E-09 Ry
     smearing contrib. (-TS)   =      -0.00006625 Ry
     internal energy E=F+TS    =    -329.26279430 Ry

     The total energy is F=E-TS. E is the sum of the following terms:
     one-electron contribution =    -112.88005609 Ry
     hartree contribution      =      66.54882600 Ry
     xc contribution           =     -34.79919320 Ry
     ewald contribution        =    -171.98176526 Ry
     one-center paw contrib.   =     -76.15060576 Ry

[...]

     convergence has been achieved in  11 iterations

[...]

     Forces acting on atoms (cartesian axes, Ry/au):

     atom    1 type  1   force =     0.00000000    0.00000000    0.00000000

     Total force =     0.000000     Total SCF correction =     0.000000

     Computing stress (Cartesian axis) and pressure

     negative rho (up, down):  0.000E+00 9.782E-05
          total   stress  (Ry/bohr**3)                   (kbar)     P=      -95.59
  -0.00064978  -0.00000000  -0.00000000          -95.59       -0.00       -0.00
  -0.00000000  -0.00064978  -0.00000000           -0.00      -95.59       -0.00
  -0.00000000  -0.00000000  -0.00064978           -0.00       -0.00      -95.59

     BFGS Geometry Optimization
     Energy error            =      0.0E+00 Ry
     Gradient error          =      0.0E+00 Ry/Bohr
     Cell gradient error     =      9.6E+01 kbar

     number of scf cycles    =   1
     number of bfgs steps    =   0

     enthalpy           new  =    -329.2628605464 Ry

     new trust radius        =       0.0289650514 bohr
     new conv_thr            =       0.0000000100 Ry

     new unit-cell volume =     75.67177 a.u.^3 (    11.21340 Ang^3 )
     density =      8.26982 g/cm^3

CELL_PARAMETERS (alat=  5.41710781)
  -0.491877717   0.491877717   0.491877717
   0.491877717  -0.491877717   0.491877717
   0.491877717   0.491877717  -0.491877717

ATOMIC_POSITIONS (crystal)
Fe            0.0000000000        0.0000000000        0.0000000000

     Writing config-only to output data dir ./bcc-Fe.save/
     NEW-OLD atomic charge density approx. for the potential

     Check: negative core charge=   -0.000089

     negative rho (up, down):  0.000E+00 9.584E-05
     extrapolated charge   15.19425, renormalised to   16.00000
     Generating pointlists ...
     new r_m :   0.3514 (alat units)  1.9037 (a.u.) for type    1

[...]

     iteration #  1     ecut=    54.00 Ry     beta= 0.70
     Davidson diagonalization with overlap
     c_bands:  1 eigenvalues not converged
     ethr =  1.00E-06,  avg # of iterations =  8.3

[...]

     Energy error            =      1.1E-03 Ry
     Gradient error          =      0.0E+00 Ry/Bohr
     Cell gradient error     =      1.7E+01 kbar

[...]

     enthalpy           old  =    -329.2628605464 Ry
     enthalpy           new  =    -329.2639467103 Ry

     CASE: enthalpy          _new < enthalpy          _old

[...]

     negative rho (up, down):  0.000E+00 8.609E-05
     extrapolated charge   16.11359, renormalised to   16.00000
     Generating pointlists ...

[...]

     number of scf cycles    =   3
     number of bfgs steps    =   2

     enthalpy           old  =    -329.2639467103 Ry
     enthalpy           new  =    -329.2639734993 Ry

     CASE: enthalpy          _new < enthalpy          _old

     new trust radius        =       0.0003716819 bohr
     new conv_thr            =            1.0E-10 Ry

     new unit-cell volume =     76.16420 a.u.^3 (    11.28637 Ang^3 )
     density =      8.21635 g/cm^3

[...]

ATOMIC_POSITIONS (crystal)
Fe            0.0000000000        0.0000000000        0.0000000000

     Writing config-only to output data dir ./bcc-Fe.save/
     NEW-OLD atomic charge density approx. for the potential

     Check: negative core charge=   -0.000088

     negative rho (up, down):  0.000E+00 8.730E-05
     extrapolated charge   15.98978, renormalised to   16.00000
     Generating pointlists ...

[...]

     Energy error            =      2.6E-07 Ry
     Gradient error          =      0.0E+00 Ry/Bohr
     Cell gradient error     =      3.9E-02 kbar

     bfgs converged in   4 scf cycles and   3 bfgs steps
     (criteria: energy <  1.0E-04 Ry, force <  1.0E-03 Ry/Bohr, cell <  5.0E-01 kbar)

     End of BFGS Geometry Optimization

     Final enthalpy           =    -329.2639737610 Ry

     File ./bcc-Fe.bfgs deleted, as requested
Begin final coordinates
     new unit-cell volume =     76.16420 a.u.^3 (    11.28637 Ang^3 )
     density =      8.21635 g/cm^3

CELL_PARAMETERS (alat=  5.41710781)
  -0.492942382   0.492942382   0.492942382
   0.492942382  -0.492942382   0.492942382
   0.492942382   0.492942382  -0.492942382

ATOMIC_POSITIONS (crystal)
Fe            0.0000000000        0.0000000000        0.0000000000
End final coordinates

     Writing config-only to output data dir ./bcc-Fe.save/

     Final scf calculation at the relaxed structure.
     The G-vectors are recalculated for the final unit cell
     Results may differ from those at the preceding step.

     Using Slab Decomposition

     bravais-lattice index     =            0
     lattice parameter (alat)  =       5.4171  a.u.
     unit-cell volume          =      76.1642 (a.u.)^3
     number of atoms/cell      =            1
     number of atomic types    =            1
     number of electrons       =        16.00
     number of Kohn-Sham states=           12
     kinetic-energy cutoff     =      54.0000  Ry
     charge density cutoff     =     432.0000  Ry
     scf convergence threshold =      1.0E-10
     mixing beta               =       0.7000
     number of iterations used =            8  plain     mixing
     press convergence thresh. =      5.0E-01
     Exchange-correlation= PBE
                           (   1   4   3   4   0   0   0)

     celldm(1)=   5.417108  celldm(2)=   0.000000  celldm(3)=   0.000000
     celldm(4)=   0.000000  celldm(5)=   0.000000  celldm(6)=   0.000000

     crystal axes: (cart. coord. in units of alat)
               a(1) = (  -0.492942   0.492942   0.492942 )
               a(2) = (   0.492942  -0.492942   0.492942 )
               a(3) = (   0.492942   0.492942  -0.492942 )

     reciprocal axes: (cart. coord. in units 2 pi/alat)
               b(1) = (  0.000000  1.014317  1.014317 )
               b(2) = (  1.014317  0.000000  1.014317 )
               b(3) = (  1.014317  1.014317  0.000000 )

     PseudoPot. # 1 for Fe read from file:
     ./Fe.pbe-spn-kjpaw_psl.0.2.1.UPF
     MD5 check sum: e86618425769142926afa95317d90200
     Pseudo is Projector augmented-wave + core cor, Zval = 16.0
     Generated using "atomic" code by A. Dal Corso  v.5.0.99 svn rev. 10869
     Shape of augmentation charge: PSQ
     Using radial grid of 1191 points,  6 beta functions with:
                l(1) =   0
                l(2) =   0
                l(3) =   1
                l(4) =   1
                l(5) =   2
                l(6) =   2
     Q(r) pseudized with 0 coefficients

     atomic species   valence    mass     pseudopotential
        Fe            16.00    55.84500     Fe( 1.00)

     Starting magnetic structure
     atomic species   magnetization
        Fe           0.152

     48 Sym. Ops., with inversion, found

   Cartesian axes

     site n.     atom                  positions (alat units)
         1           Fe  tau(   1) = (   0.0000000   0.0000000   0.0000000  )

     number of k points=    47  Marzari-Vanderbilt smearing, width (Ry)=  0.0050
                       cart. coord. in units 2pi/alat
        k(    1) = (   0.0000000   0.0000000   0.0000000), wk =   0.0010000
        k(    2) = (   0.1014317   0.1014317   0.0000000), wk =   0.0120000
        k(    3) = (   0.2028635   0.2028635   0.0000000), wk =   0.0120000
        k(    4) = (   0.3042952   0.3042952   0.0000000), wk =   0.0120000
        k(    5) = (   0.4057269   0.4057269   0.0000000), wk =   0.0120000
        k(    6) = (  -0.5071587  -0.5071587   0.0000000), wk =   0.0060000
        k(    7) = (   0.2028635   0.1014317   0.1014317), wk =   0.0240000
        k(    8) = (   0.3042952   0.2028635   0.1014317), wk =   0.0480000
        k(    9) = (   0.4057269   0.3042952   0.1014317), wk =   0.0480000
        k(   10) = (   0.5071587   0.4057269   0.1014317), wk =   0.0480000
        k(   11) = (   0.4057269   0.2028635   0.2028635), wk =   0.0240000
        k(   12) = (   0.5071587   0.3042952   0.2028635), wk =   0.0480000
        k(   13) = (   0.6085904   0.4057269   0.2028635), wk =   0.0240000
        k(   14) = (   0.6085904   0.3042952   0.3042952), wk =   0.0240000
        k(   15) = (   0.2028635   0.2028635   0.2028635), wk =   0.0080000
        k(   16) = (   0.3042952   0.3042952   0.2028635), wk =   0.0240000
        k(   17) = (   0.4057269   0.4057269   0.2028635), wk =   0.0240000
        k(   18) = (   0.5071587   0.5071587   0.2028635), wk =   0.0120000
        k(   19) = (   0.0000000   0.0000000   0.2028635), wk =   0.0060000
        k(   20) = (   0.4057269   0.3042952   0.3042952), wk =   0.0240000
        k(   21) = (   0.5071587   0.4057269   0.3042952), wk =   0.0480000
        k(   22) = (   0.0000000  -0.1014317   0.3042952), wk =   0.0240000
        k(   23) = (   0.6085904   0.4057269   0.4057269), wk =   0.0080000
        k(   24) = (   0.0000000  -0.2028635   0.4057269), wk =   0.0240000
        k(   25) = (   0.1014317  -0.1014317   0.4057269), wk =   0.0240000
        k(   26) = (   0.0000000  -0.3042952   0.5071587), wk =   0.0240000
        k(   27) = (   0.1014317  -0.2028635   0.5071587), wk =   0.0480000
        k(   28) = (  -1.0143173  -0.4057269  -0.4057269), wk =   0.0120000
        k(   29) = (  -0.9128856  -0.3042952  -0.4057269), wk =   0.0480000
        k(   30) = (  -0.8114539  -0.2028635  -0.4057269), wk =   0.0240000
        k(   31) = (  -0.8114539  -0.3042952  -0.3042952), wk =   0.0240000
        k(   32) = (   0.4057269   0.4057269   0.4057269), wk =   0.0080000
        k(   33) = (   0.5071587   0.5071587   0.4057269), wk =   0.0120000
        k(   34) = (   0.0000000   0.0000000   0.4057269), wk =   0.0060000
        k(   35) = (  -0.0000000  -0.1014317   0.5071587), wk =   0.0240000
        k(   36) = (   0.0000000  -0.2028635   0.6085904), wk =   0.0240000
        k(   37) = (   0.1014317  -0.1014317   0.6085904), wk =   0.0240000
        k(   38) = (  -1.0143173  -0.3042952  -0.3042952), wk =   0.0120000
        k(   39) = (  -0.9128856  -0.2028635  -0.3042952), wk =   0.0480000
        k(   40) = (  -0.8114539  -0.2028635  -0.2028635), wk =   0.0080000
        k(   41) = (  -0.0000000  -0.0000000   0.6085904), wk =   0.0060000
        k(   42) = (   0.0000000  -0.1014317   0.7100221), wk =   0.0240000
        k(   43) = (  -1.0143173  -0.2028635  -0.2028635), wk =   0.0120000
        k(   44) = (  -0.9128856  -0.1014317  -0.2028635), wk =   0.0240000
        k(   45) = (   0.0000000   0.0000000   0.8114539), wk =   0.0060000
        k(   46) = (  -1.0143173  -0.1014317  -0.1014317), wk =   0.0120000
        k(   47) = (  -1.0143173  -1.0143173  -1.0143173), wk =   0.0010000

     Check: negative core charge=   -0.000079
     Generating pointlists ...

     Initial potential from superposition of free atoms

     starting charge      15.9996, renormalised to      16.0000
     Starting wfcs are   13 randomized atomic wfcs
     Checking if some PAW data can be deallocated...

     Self-consistent Calculation

     iteration #  1     ecut=    54.00 Ry     beta= 0.70
     Davidson diagonalization with overlap
     c_bands:  1 eigenvalues not converged
     c_bands:  1 eigenvalues not converged
     c_bands:  1 eigenvalues not converged
     c_bands:  1 eigenvalues not converged
     c_bands:  1 eigenvalues not converged
     c_bands:  1 eigenvalues not converged
     c_bands:  1 eigenvalues not converged
     c_bands:  1 eigenvalues not converged
     c_bands:  1 eigenvalues not converged
     c_bands:  1 eigenvalues not converged
     c_bands:  1 eigenvalues not converged
     c_bands:  1 eigenvalues not converged
     ethr =  1.00E-06,  avg # of iterations = 14.5

[...]

     total energy              =    -329.26350885 Ry
     estimated scf accuracy    <          1.1E-09 Ry

[...]

     iteration # 10     ecut=    54.00 Ry     beta= 0.70
     Davidson diagonalization with overlap
     ethr =  6.74E-12,  avg # of iterations =  2.0

[...]

     Magnetic moment per site  (integrated on atomic sphere of radius R)
     atom   1 (R=0.351)  charge= 14.3737  magn=  2.1859

     End of self-consistent calculation

 ------ SPIN UP ------------

[...]

 ------ SPIN DOWN ----------

[...]

          k = 0.0000 0.0000 0.8115 (   494 PWs)   bands (ev):

[...]

          k =-1.0143-1.0143-1.0143 (   490 PWs)   bands (ev):

   -66.9369 -33.2515 -33.2515 -33.2515  15.2924  15.2924  20.7138  20.7138
    20.7138  28.6290  28.6290  28.6290

     the Fermi energy is    18.4654 ev

!    total energy              =    -329.26350885 Ry
     total all-electron energy =     -2545.560044 Ry
     estimated scf accuracy    <          3.4E-12 Ry
     smearing contrib. (-TS)   =      -0.00007866 Ry
     internal energy E=F+TS    =    -329.26343019 Ry

     The total energy is F=E-TS. E is the sum of the following terms:
     one-electron contribution =    -108.96537927 Ry
     hartree contribution      =      65.12693943 Ry
     xc contribution           =     -34.82907067 Ry
     ewald contribution        =    -174.44408464 Ry
     one-center paw contrib.   =     -76.15183504 Ry

     total magnetization       =     2.13 Bohr mag/cell
     absolute magnetization    =     2.26 Bohr mag/cell

     convergence has been achieved in  10 iterations

     negative rho (up, down):  0.000E+00 8.739E-05

     Forces acting on atoms (cartesian axes, Ry/au):

     atom    1 type  1   force =     0.00000000    0.00000000    0.00000000

     Total force =     0.000000     Total SCF correction =     0.000000

     Computing stress (Cartesian axis) and pressure

     negative rho (up, down):  0.000E+00 8.739E-05
          total   stress  (Ry/bohr**3)                   (kbar)     P=       -9.00
  -0.00006121   0.00000000   0.00000000           -9.00        0.00        0.00
   0.00000000  -0.00006121   0.00000000            0.00       -9.00        0.00
   0.00000000   0.00000000  -0.00006121            0.00        0.00       -9.00

     Writing all to output data dir ./bcc-Fe.save/

     General routines

     Parallel routines

   This run was terminated on:  11:19:46   1Nov2022

   JOB DONE.