     Program PWSCF v.7.1 starts on  1Nov2022 at 20:29:45

     Reading input from Fe3Si.in

     Current dimensions of program PWSCF are:
     Max number of different atomic species (ntypx) = 10
     Max number of k-points (npk) =  40000
     Max angular momentum in pseudopotentials (lmaxx) =  4
     Message from routine volume:
     axis vectors are left-handed

     File ./file.update deleted, as requested
     file Fe.pbe-spn-kjpaw_psl.0.2.1.UPF: wavefunction(s)  3D renormalized

     IMPORTANT: XC functional enforced from input :
     Exchange-correlation= PBE
                           (   1   4   3   4   0   0   0)
     Any further DFT definition will be discarded
     Please, verify this is what you really want

     Message from routine setup:
     using ibrav=0 with symmetry is DISCOURAGED, use correct ibrav instead

     R & G space division:  proc/nbgrp/npool/nimage =       4
     Subspace diagonalization in iterative solution of the eigenvalue problem:
     a serial algorithm will be used

     Using Slab Decomposition

     bravais-lattice index     =            0
     lattice parameter (alat)  =      10.6864  a.u.
     unit-cell volume          =     305.0945 (a.u.)^3
     number of atoms/cell      =            4
     number of atomic types    =            2
     number of electrons       =        52.00
     number of Kohn-Sham states=           31
     kinetic-energy cutoff     =      54.0000  Ry
     charge density cutoff     =     432.0000  Ry
     scf convergence threshold =      1.0E-08
     mixing beta               =       0.7000
     number of iterations used =            8  plain     mixing
     energy convergence thresh.=      1.0E-04
     force convergence thresh. =      1.0E-03
     press convergence thresh. =      5.0E-01
     Exchange-correlation= PBE
                           (   1   4   3   4   0   0   0)
     nstep                     =           50

     celldm(1)=  10.686401  celldm(2)=   0.000000  celldm(3)=   0.000000
     celldm(4)=   0.000000  celldm(5)=   0.000000  celldm(6)=   0.000000

     crystal axes: (cart. coord. in units of alat)
               a(1) = (   0.500000   0.500000   0.000000 )
               a(2) = (   0.500000   0.000000   0.500000 )
               a(3) = (   0.000000   0.500000   0.500000 )

     reciprocal axes: (cart. coord. in units 2 pi/alat)
               b(1) = (  1.000000  1.000000 -1.000000 )
               b(2) = (  1.000000 -1.000000  1.000000 )
               b(3) = ( -1.000000  1.000000  1.000000 )

     PseudoPot. # 1 for Si read from file:
     ./Si.pbe-n-rrkjus_psl.1.0.0.UPF
     MD5 check sum: 0b0bb1205258b0d07b9f9672cf965d36
     Pseudo is Ultrasoft + core correction, Zval =  4.0
     Generated using "atomic" code by A. Dal Corso  v.5.1
     Using radial grid of 1141 points,  6 beta functions with:
                l(1) =   0
                l(2) =   0
                l(3) =   1
                l(4) =   1
                l(5) =   2
                l(6) =   2
     Q(r) pseudized with 0 coefficients

     PseudoPot. # 2 for Fe read from file:
     ./Fe.pbe-spn-kjpaw_psl.0.2.1.UPF
     MD5 check sum: e86618425769142926afa95317d90200
     Pseudo is Projector augmented-wave + core cor, Zval = 16.0
     Generated using "atomic" code by A. Dal Corso  v.5.0.99 svn rev. 10869
     Shape of augmentation charge: PSQ
     Using radial grid of 1191 points,  6 beta functions with:
                l(1) =   0
                l(2) =   0
                l(3) =   1
                l(4) =   1
                l(5) =   2
                l(6) =   2
     Q(r) pseudized with 0 coefficients

     atomic species   valence    mass     pseudopotential
        Si             4.00    28.08500     Si( 1.00)
        Fe            16.00    55.84500     Fe( 1.00)

     Starting magnetic structure
     atomic species   magnetization
        Si           1.000
        Fe           1.000

     48 Sym. Ops., with inversion, found

   Cartesian axes

     site n.     atom                  positions (alat units)
         1           Fe  tau(   1) = (   0.5000000   0.5000000   0.5000000  )
         2           Fe  tau(   2) = (   0.2500000   0.2500000   0.2500000  )
         3           Fe  tau(   3) = (   0.7500000   0.7500000   0.7500000  )
         4           Si  tau(   4) = (   0.0000000   0.0000000   0.0000000  )

     number of k points=    10  Marzari-Vanderbilt smearing, width (Ry)=  0.0050
                       cart. coord. in units 2pi/alat
        k(    1) = (   0.0000000   0.0000000   0.0000000), wk =   0.0080000
        k(    2) = (  -0.2000000   0.2000000   0.2000000), wk =   0.0640000
        k(    3) = (  -0.4000000   0.4000000   0.4000000), wk =   0.0640000
        k(    4) = (   0.0000000   0.0000000   0.4000000), wk =   0.0480000
        k(    5) = (  -0.2000000   0.2000000   0.6000000), wk =   0.1920000
        k(    6) = (   0.6000000  -0.6000000  -0.2000000), wk =   0.1920000
        k(    7) = (   0.4000000  -0.4000000   0.0000000), wk =   0.0960000
        k(    8) = (   0.0000000   0.0000000   0.8000000), wk =   0.0480000
        k(    9) = (   0.8000000  -0.8000000   0.0000000), wk =   0.0960000
        k(   10) = (   1.0000000  -0.6000000  -0.2000000), wk =   0.1920000

     Check: negative core charge=   -0.000060
     Generating pointlists ...
     new r_m :   0.1786 (alat units)  1.9088 (a.u.) for type    1
     new r_m :   0.1786 (alat units)  1.9088 (a.u.) for type    2

     Initial potential from superposition of free atoms

     starting charge      51.9981, renormalised to      52.0000
     Starting wfcs are   43 randomized atomic wfcs
     Checking if some PAW data can be deallocated...

     Self-consistent Calculation

     iteration #  1     ecut=    54.00 Ry     beta= 0.70
     Davidson diagonalization with overlap
     ethr =  1.00E-02,  avg # of iterations =  2.9

     negative rho (up, down):  0.000E+00 1.868E-04

     total energy              =    -996.81047642 Ry
     estimated scf accuracy    <      12.75238108 Ry

     total magnetization       =    10.00 Bohr mag/cell
     absolute magnetization    =    13.60 Bohr mag/cell

[...]

     Magnetic moment per site  (integrated on atomic sphere of radius R)
     atom   1 (R=0.179)  charge= 14.3770  magn=  2.5664
     atom   2 (R=0.179)  charge= 14.4825  magn=  1.3526
     atom   3 (R=0.179)  charge= 14.4825  magn=  1.3526
     atom   4 (R=0.179)  charge=  2.0485  magn= -0.0642

     End of self-consistent calculation

 ------ SPIN UP ------------

          k = 0.0000 0.0000 0.0000 (  2085 PWs)   bands (ev):

   -71.2267 -70.0185 -70.0046 -37.2794 -37.2794 -37.2794 -36.1155 -36.1155
   -36.1155 -36.0491 -36.0491 -36.0491   5.9900  12.9203  12.9203  13.1745
    13.1745  13.1745  14.2294  14.2294  14.2294  16.1537  16.1537  16.7348
    16.7348  16.7348  17.1100  17.1100  20.8977  21.5196  21.5196

          k =-0.2000 0.2000 0.2000 (  2028 PWs)   bands (ev):

[...]

 ------ SPIN DOWN ----------

[...]

     the Fermi energy is    17.4092 ev

!    total energy              =    -999.29978884 Ry
     estimated scf accuracy    <          2.9E-10 Ry
     smearing contrib. (-TS)   =       0.00014619 Ry
     internal energy E=F+TS    =    -999.29993504 Ry

     The total energy is F=E-TS. E is the sum of the following terms:
     one-electron contribution =    -391.51635032 Ry
     hartree contribution      =     229.19691499 Ry
     xc contribution           =    -110.85156897 Ry
     ewald contribution        =    -497.68288100 Ry
     one-center paw contrib.   =    -228.44604973 Ry

[...]

     convergence has been achieved in  40 iterations

[...]

     Forces acting on atoms (cartesian axes, Ry/au):

     atom    1 type  2   force =     0.00000000    0.00000000    0.00000000
     atom    2 type  2   force =     0.00000000    0.00000000    0.00000000
     atom    3 type  2   force =     0.00000000    0.00000000   -0.00000000
     atom    4 type  1   force =     0.00000000   -0.00000000    0.00000000

     Total force =     0.000000     Total SCF correction =     0.000000

     Computing stress (Cartesian axis) and pressure

     negative rho (up, down):  0.000E+00 1.397E-04
          total   stress  (Ry/bohr**3)                   (kbar)     P=      -67.87
  -0.00046140  -0.00000000  -0.00000000          -67.87       -0.00       -0.00
  -0.00000000  -0.00046140  -0.00000000           -0.00      -67.87       -0.00
  -0.00000000  -0.00000000  -0.00046140           -0.00       -0.00      -67.87

     BFGS Geometry Optimization
     Energy error            =      0.0E+00 Ry
     Gradient error          =      2.6E-31 Ry/Bohr
     Cell gradient error     =      6.8E+01 kbar

     number of scf cycles    =   1
     number of bfgs steps    =   0

     enthalpy           new  =    -999.2997888416 Ry

     new trust radius        =       0.0402966793 bohr
     Message from routine volume:
     axis vectors are left-handed
     new conv_thr            =       0.0000000100 Ry

     new unit-cell volume =    294.65796 a.u.^3 (    43.66380 Ang^3 )
     density =      7.43945 g/cm^3

CELL_PARAMETERS (alat= 10.68640123)
   0.494232441   0.494232441  -0.000000000
   0.494232441  -0.000000000   0.494232441
  -0.000000000   0.494232441   0.494232441

ATOMIC_POSITIONS (crystal)
Fe            0.5000000000        0.5000000000        0.5000000000
Fe            0.2500000000        0.2500000000        0.2500000000
Fe            0.7500000000        0.7500000000        0.7500000000
Si           -0.0000000000        0.0000000000       -0.0000000000

     Writing config-only to output data dir ./file.save/
     NEW-OLD atomic charge density approx. for the potential

     Check: negative core charge=   -0.000067

     negative rho (up, down):  0.000E+00 1.366E-04
     extrapolated charge   50.15826, renormalised to   52.00000
     Generating pointlists ...
     new r_m :   0.1766 (alat units)  1.8868 (a.u.) for type    1
     new r_m :   0.1766 (alat units)  1.8868 (a.u.) for type    2

[...]

     iteration #  1     ecut=    54.00 Ry     beta= 0.70
     Davidson diagonalization with overlap
     c_bands:  1 eigenvalues not converged
     ethr =  1.00E-06,  avg # of iterations = 15.3

[...]

     Energy error            =      1.9E-03 Ry
     Gradient error          =      1.4E-31 Ry/Bohr
     Cell gradient error     =      1.5E+01 kbar

     number of scf cycles    =   2
     number of bfgs steps    =   1

     enthalpy           old  =    -999.2997888416 Ry
     enthalpy           new  =    -999.3017175677 Ry

     CASE: enthalpy          _new < enthalpy          _old

     new trust radius        =       0.0071145194 bohr
     Message from routine volume:
     axis vectors are left-handed
     new conv_thr            =            1.0E-10 Ry

     new unit-cell volume =    296.49363 a.u.^3 (    43.93582 Ang^3 )
     density =      7.39339 g/cm^3

[...]

ATOMIC_POSITIONS (crystal)
Fe            0.5000000000        0.5000000000        0.5000000000
Fe            0.2500000000        0.2500000000        0.2500000000
Fe            0.7500000000        0.7500000000        0.7500000000
Si           -0.0000000000        0.0000000000       -0.0000000000

     Writing config-only to output data dir ./file.save/
     NEW-OLD atomic charge density approx. for the potential

     Check: negative core charge=   -0.000066

     negative rho (up, down):  0.000E+00 1.280E-04
     extrapolated charge   52.32193, renormalised to   52.00000
     Generating pointlists ...

[...]

     Energy error            =      9.3E-05 Ry
     Gradient error          =      3.3E-31 Ry/Bohr
     Cell gradient error     =      2.1E-01 kbar
     Message from routine volume:
     axis vectors are left-handed

     bfgs converged in   3 scf cycles and   2 bfgs steps
     (criteria: energy <  1.0E-04 Ry, force <  1.0E-03 Ry/Bohr, cell <  5.0E-01 kbar)

     End of BFGS Geometry Optimization

     Final enthalpy           =    -999.3018100799 Ry

     File ./file.bfgs deleted, as requested
Begin final coordinates
     new unit-cell volume =    296.49363 a.u.^3 (    43.93582 Ang^3 )
     density =      7.39339 g/cm^3

CELL_PARAMETERS (alat= 10.68640123)
   0.495256648   0.495256648  -0.000000000
   0.495256648  -0.000000000   0.495256648
  -0.000000000   0.495256648   0.495256648

ATOMIC_POSITIONS (crystal)
Fe            0.5000000000        0.5000000000        0.5000000000
Fe            0.2500000000        0.2500000000        0.2500000000
Fe            0.7500000000        0.7500000000        0.7500000000
Si           -0.0000000000        0.0000000000       -0.0000000000
End final coordinates

     Writing config-only to output data dir ./file.save/

     Final scf calculation at the relaxed structure.
     The G-vectors are recalculated for the final unit cell
     Results may differ from those at the preceding step.

     Using Slab Decomposition

     bravais-lattice index     =            0
     lattice parameter (alat)  =      10.6864  a.u.
     unit-cell volume          =     296.4936 (a.u.)^3
     number of atoms/cell      =            4
     number of atomic types    =            2
     number of electrons       =        52.00
     number of Kohn-Sham states=           31
     kinetic-energy cutoff     =      54.0000  Ry
     charge density cutoff     =     432.0000  Ry
     scf convergence threshold =      1.0E-10
     mixing beta               =       0.7000
     number of iterations used =            8  plain     mixing
     press convergence thresh. =      5.0E-01
     Exchange-correlation= PBE
                           (   1   4   3   4   0   0   0)

     celldm(1)=  10.686401  celldm(2)=   0.000000  celldm(3)=   0.000000
     celldm(4)=   0.000000  celldm(5)=   0.000000  celldm(6)=   0.000000

     crystal axes: (cart. coord. in units of alat)
               a(1) = (   0.495257   0.495257  -0.000000 )
               a(2) = (   0.495257  -0.000000   0.495257 )
               a(3) = (  -0.000000   0.495257   0.495257 )

     reciprocal axes: (cart. coord. in units 2 pi/alat)
               b(1) = (  1.009578  1.009578 -1.009578 )
               b(2) = (  1.009578 -1.009578  1.009578 )
               b(3) = ( -1.009578  1.009578  1.009578 )

     PseudoPot. # 1 for Si read from file:
     ./Si.pbe-n-rrkjus_psl.1.0.0.UPF
     MD5 check sum: 0b0bb1205258b0d07b9f9672cf965d36
     Pseudo is Ultrasoft + core correction, Zval =  4.0
     Generated using "atomic" code by A. Dal Corso  v.5.1
     Using radial grid of 1141 points,  6 beta functions with:
                l(1) =   0
                l(2) =   0
                l(3) =   1
                l(4) =   1
                l(5) =   2
                l(6) =   2
     Q(r) pseudized with 0 coefficients

     PseudoPot. # 2 for Fe read from file:
     ./Fe.pbe-spn-kjpaw_psl.0.2.1.UPF
     MD5 check sum: e86618425769142926afa95317d90200
     Pseudo is Projector augmented-wave + core cor, Zval = 16.0
     Generated using "atomic" code by A. Dal Corso  v.5.0.99 svn rev. 10869
     Shape of augmentation charge: PSQ
     Using radial grid of 1191 points,  6 beta functions with:
                l(1) =   0
                l(2) =   0
                l(3) =   1
                l(4) =   1
                l(5) =   2
                l(6) =   2
     Q(r) pseudized with 0 coefficients

     atomic species   valence    mass     pseudopotential
        Si             4.00    28.08500     Si( 1.00)
        Fe            16.00    55.84500     Fe( 1.00)

     Starting magnetic structure
     atomic species   magnetization
        Si          -0.029
        Fe           0.121

     48 Sym. Ops., with inversion, found

   Cartesian axes

     site n.     atom                  positions (alat units)
         1           Fe  tau(   1) = (   0.4952566   0.4952566   0.4952566  )
         2           Fe  tau(   2) = (   0.2476283   0.2476283   0.2476283  )
         3           Fe  tau(   3) = (   0.7428850   0.7428850   0.7428850  )
         4           Si  tau(   4) = (   0.0000000  -0.0000000   0.0000000  )

     number of k points=    10  Marzari-Vanderbilt smearing, width (Ry)=  0.0050
                       cart. coord. in units 2pi/alat
        k(    1) = (   0.0000000   0.0000000   0.0000000), wk =   0.0080000
        k(    2) = (  -0.2019155   0.2019155   0.2019155), wk =   0.0640000
        k(    3) = (  -0.4038310   0.4038310   0.4038310), wk =   0.0640000
        k(    4) = (   0.0000000   0.0000000   0.4038310), wk =   0.0480000
        k(    5) = (  -0.2019155   0.2019155   0.6057465), wk =   0.1920000
        k(    6) = (   0.6057465  -0.6057465  -0.2019155), wk =   0.1920000
        k(    7) = (   0.4038310  -0.4038310   0.0000000), wk =   0.0960000
        k(    8) = (   0.0000000   0.0000000   0.8076621), wk =   0.0480000
        k(    9) = (   0.8076621  -0.8076621   0.0000000), wk =   0.0960000
        k(   10) = (   1.0095776  -0.6057465  -0.2019155), wk =   0.1920000

     Check: negative core charge=   -0.000063
     Generating pointlists ...

     Initial potential from superposition of free atoms

     starting charge      51.9981, renormalised to      52.0000
     Starting wfcs are   43 randomized atomic wfcs
     Checking if some PAW data can be deallocated...

     Self-consistent Calculation

     iteration #  1     ecut=    54.00 Ry     beta= 0.70
     Davidson diagonalization with overlap
     c_bands:  2 eigenvalues not converged
     c_bands:  2 eigenvalues not converged
     c_bands:  1 eigenvalues not converged
     ethr =  1.00E-06,  avg # of iterations = 15.4

[...]

     total energy              =    -999.30084673 Ry
     estimated scf accuracy    <          4.3E-10 Ry

[...]

     iteration # 15     ecut=    54.00 Ry     beta= 0.70
     Davidson diagonalization with overlap
     ethr =  8.27E-13,  avg # of iterations =  3.4

[...]

     Magnetic moment per site  (integrated on atomic sphere of radius R)
     atom   1 (R=0.177)  charge= 14.3417  magn=  2.5386
     atom   2 (R=0.177)  charge= 14.4477  magn=  1.3430
     atom   3 (R=0.177)  charge= 14.4477  magn=  1.3430
     atom   4 (R=0.177)  charge=  2.0162  magn= -0.0592

     End of self-consistent calculation

 ------ SPIN UP ------------

[...]

 ------ SPIN DOWN ----------

[...]

          k =-0.2019 0.2019 0.6057 (  1984 PWs)   bands (ev):

[...]

          k = 1.0096-0.6057-0.2019 (  1982 PWs)   bands (ev):

   -67.8404 -67.8357 -67.6330 -34.0960 -34.0466 -34.0208 -33.9823 -33.9244
   -33.9183 -33.7107 -33.6824 -33.6650   9.1179  12.0981  13.0816  14.0201
    15.1332  16.0345  16.1839  16.3135  16.9687  17.1287  17.1832  17.8889
    18.7847  19.0085  19.2225  19.3430  19.4794  19.9069  19.9550

     the Fermi energy is    17.9861 ev

!    total energy              =    -999.30084673 Ry
     estimated scf accuracy    <          6.5E-11 Ry
     smearing contrib. (-TS)   =       0.00012736 Ry
     internal energy E=F+TS    =    -999.30097409 Ry

     The total energy is F=E-TS. E is the sum of the following terms:
     one-electron contribution =    -384.02080230 Ry
     hartree contribution      =     226.56043958 Ry
     xc contribution           =    -110.94269413 Ry
     ewald contribution        =    -502.44947045 Ry
     one-center paw contrib.   =    -228.44844680 Ry

     total magnetization       =     5.07 Bohr mag/cell
     absolute magnetization    =     5.49 Bohr mag/cell

     convergence has been achieved in  15 iterations

     negative rho (up, down):  0.000E+00 1.299E-04

     Forces acting on atoms (cartesian axes, Ry/au):

     atom    1 type  2   force =     0.00000000    0.00000000    0.00000000
     atom    2 type  2   force =    -0.00000000   -0.00000000   -0.00000000
     atom    3 type  2   force =    -0.00000000    0.00000000    0.00000000
     atom    4 type  1   force =     0.00000000    0.00000000    0.00000000

     Total force =     0.000000     Total SCF correction =     0.000000

     Computing stress (Cartesian axis) and pressure

     negative rho (up, down):  0.000E+00 1.299E-04
          total   stress  (Ry/bohr**3)                   (kbar)     P=       -5.41
  -0.00003680  -0.00000000   0.00000000           -5.41       -0.00        0.00
   0.00000000  -0.00003680  -0.00000000            0.00       -5.41       -0.00
  -0.00000000  -0.00000000  -0.00003680           -0.00       -0.00       -5.41

     Writing all to output data dir ./file.save/

     General routines

     Parallel routines

   This run was terminated on:  20:32:55   1Nov2022

   JOB DONE.