     Program PWSCF v.6.5 starts on 21Nov2022 at 17:24:12

     Reading input from Fe3Si.in

     Current dimensions of program PWSCF are:
     Max number of different atomic species (ntypx) = 10
     Max number of k-points (npk) =  40000
     Max angular momentum in pseudopotentials (lmaxx) =  3
     Message from routine volume:
     axis vectors are left-handed

     IMPORTANT: XC functional enforced from input :
     Exchange-correlation= PBE
                           (   1   4   3   4   0   0   0)
     Any further DFT definition will be discarded
     Please, verify this is what you really want

               file Fe.pbe-spn-kjpaw_psl.0.2.1.UPF: wavefunction(s)  3D renormalized

     Subspace diagonalization in iterative solution of the eigenvalue problem:
     a serial algorithm will be used

     Message from routine setup:
     using ibrav=0 with symmetry is DISCOURAGED, use correct ibrav instead

     bravais-lattice index     =            0
     lattice parameter (alat)  =      10.6864  a.u.
     unit-cell volume          =     305.0945 (a.u.)^3
     number of atoms/cell      =            4
     number of atomic types    =            2
     number of electrons       =        52.00
     number of Kohn-Sham states=           31
     kinetic-energy cutoff     =     100.0000  Ry
     charge density cutoff     =     700.0000  Ry
     convergence threshold     =      1.0E-08
     mixing beta               =       0.7000
     number of iterations used =            8  plain     mixing
     Exchange-correlation= PBE
                           (   1   4   3   4   0   0   0)
     nstep                     =           50

     celldm(1)=  10.686401  celldm(2)=   0.000000  celldm(3)=   0.000000
     celldm(4)=   0.000000  celldm(5)=   0.000000  celldm(6)=   0.000000

     crystal axes: (cart. coord. in units of alat)
               a(1) = (   0.500000   0.500000   0.000000 )
               a(2) = (   0.500000   0.000000   0.500000 )
               a(3) = (   0.000000   0.500000   0.500000 )

     reciprocal axes: (cart. coord. in units 2 pi/alat)
               b(1) = (  1.000000  1.000000 -1.000000 )
               b(2) = (  1.000000 -1.000000  1.000000 )
               b(3) = ( -1.000000  1.000000  1.000000 )

     PseudoPot. # 1 for Si read from file:
     /home/max/workQE/Pseudos/Si.pbe-n-rrkjus_psl.1.0.0.UPF
     MD5 check sum: 0b0bb1205258b0d07b9f9672cf965d36
     Pseudo is Ultrasoft + core correction, Zval =  4.0
     Generated using "atomic" code by A. Dal Corso v.5.1
     Using radial grid of 1141 points,  6 beta functions with:
                l(1) =   0
                l(2) =   0
                l(3) =   1
                l(4) =   1
                l(5) =   2
                l(6) =   2
     Q(r) pseudized with 0 coefficients

     PseudoPot. # 2 for Fe read from file:
     /home/max/workQE/Pseudos/Fe.pbe-spn-kjpaw_psl.0.2.1.UPF
     MD5 check sum: e86618425769142926afa95317d90200
     Pseudo is Projector augmented-wave + core cor, Zval = 16.0
     Generated using "atomic" code by A. Dal Corso v.5.0.99 svn rev. 10869
     Shape of augmentation charge: PSQ
     Using radial grid of 1191 points,  6 beta functions with:
                l(1) =   0
                l(2) =   0
                l(3) =   1
                l(4) =   1
                l(5) =   2
                l(6) =   2
     Q(r) pseudized with 0 coefficients

     atomic species   valence    mass     pseudopotential
        Si             4.00    28.08500     Si( 1.00)
        Fe            16.00    55.84500     Fe( 1.00)

     Starting magnetic structure
     atomic species   magnetization
        Si           1.000
        Fe           1.000

     48 Sym. Ops., with inversion, found

   Cartesian axes

     site n.     atom                  positions (alat units)
         1           Fe  tau(   1) = (   0.5000000   0.5000000   0.5000000  )
         2           Fe  tau(   2) = (   0.2500000   0.2500000   0.2500000  )
         3           Fe  tau(   3) = (   0.7500000   0.7500000   0.7500000  )
         4           Si  tau(   4) = (   0.0000000   0.0000000   0.0000000  )

     number of k points=    47  Marzari-Vanderbilt smearing, width (Ry)=  0.0050
                       cart. coord. in units 2pi/alat
        k(    1) = (   0.0000000   0.0000000   0.0000000), wk =   0.0010000
        k(    2) = (  -0.1000000   0.1000000   0.1000000), wk =   0.0080000
        k(    3) = (  -0.2000000   0.2000000   0.2000000), wk =   0.0080000
        k(    4) = (  -0.3000000   0.3000000   0.3000000), wk =   0.0080000
        k(    5) = (  -0.4000000   0.4000000   0.4000000), wk =   0.0080000
        k(    6) = (   0.5000000  -0.5000000  -0.5000000), wk =   0.0040000
        k(    7) = (   0.0000000   0.0000000   0.2000000), wk =   0.0060000
        k(    8) = (  -0.1000000   0.1000000   0.3000000), wk =   0.0240000
        k(    9) = (  -0.2000000   0.2000000   0.4000000), wk =   0.0240000
        k(   10) = (  -0.3000000   0.3000000   0.5000000), wk =   0.0240000
        k(   11) = (   0.6000000  -0.6000000  -0.4000000), wk =   0.0240000
        k(   12) = (   0.5000000  -0.5000000  -0.3000000), wk =   0.0240000
        k(   13) = (   0.4000000  -0.4000000  -0.2000000), wk =   0.0240000
        k(   14) = (   0.3000000  -0.3000000  -0.1000000), wk =   0.0240000
        k(   15) = (   0.2000000  -0.2000000   0.0000000), wk =   0.0120000
        k(   16) = (   0.0000000   0.0000000   0.4000000), wk =   0.0060000
        k(   17) = (  -0.1000000   0.1000000   0.5000000), wk =   0.0240000
        k(   18) = (  -0.2000000   0.2000000   0.6000000), wk =   0.0240000
        k(   19) = (   0.7000000  -0.7000000  -0.3000000), wk =   0.0240000
        k(   20) = (   0.6000000  -0.6000000  -0.2000000), wk =   0.0240000
        k(   21) = (   0.5000000  -0.5000000  -0.1000000), wk =   0.0240000
        k(   22) = (   0.4000000  -0.4000000   0.0000000), wk =   0.0120000
        k(   23) = (   0.0000000   0.0000000   0.6000000), wk =   0.0060000
        k(   24) = (  -0.1000000   0.1000000   0.7000000), wk =   0.0240000
        k(   25) = (   0.8000000  -0.8000000  -0.2000000), wk =   0.0240000
        k(   26) = (   0.7000000  -0.7000000  -0.1000000), wk =   0.0240000
        k(   27) = (   0.6000000  -0.6000000  -0.0000000), wk =   0.0120000
        k(   28) = (   0.0000000   0.0000000   0.8000000), wk =   0.0060000
        k(   29) = (   0.9000000  -0.9000000  -0.1000000), wk =   0.0240000
        k(   30) = (   0.8000000  -0.8000000   0.0000000), wk =   0.0120000
        k(   31) = (   0.0000000   0.0000000  -1.0000000), wk =   0.0030000
        k(   32) = (   0.0000000   0.2000000   0.4000000), wk =   0.0240000
        k(   33) = (  -0.1000000   0.3000000   0.5000000), wk =   0.0480000
        k(   34) = (   0.8000000  -0.6000000  -0.4000000), wk =   0.0480000
        k(   35) = (   0.7000000  -0.5000000  -0.3000000), wk =   0.0240000
        k(   36) = (   0.0000000   0.2000000   0.6000000), wk =   0.0240000
        k(   37) = (   0.9000000  -0.7000000  -0.3000000), wk =   0.0480000
        k(   38) = (   0.8000000  -0.6000000  -0.2000000), wk =   0.0480000
        k(   39) = (   0.7000000  -0.5000000  -0.1000000), wk =   0.0480000
        k(   40) = (   0.6000000  -0.4000000   0.0000000), wk =   0.0240000
        k(   41) = (   1.0000000  -0.8000000  -0.2000000), wk =   0.0240000
        k(   42) = (   0.9000000  -0.7000000  -0.1000000), wk =   0.0480000
        k(   43) = (   0.8000000  -0.6000000   0.0000000), wk =   0.0240000
        k(   44) = (   0.0000000   0.2000000  -1.0000000), wk =   0.0120000
        k(   45) = (   1.0000000  -0.6000000  -0.2000000), wk =   0.0240000
        k(   46) = (   0.9000000  -0.5000000  -0.1000000), wk =   0.0240000
        k(   47) = (   0.0000000   0.4000000  -1.0000000), wk =   0.0120000

     Check: negative core charge=   -0.000022

     Initial potential from superposition of free atoms

     starting charge   51.99813, renormalised to   52.00000
     Starting wfcs are   43 randomized atomic wfcs
     Checking if some PAW data can be deallocated...

     Self-consistent Calculation

     iteration #  1     ecut=   100.00 Ry     beta= 0.70
     Davidson diagonalization with overlap
     ethr =  1.00E-02,  avg # of iterations =  2.8

     total energy              =    -996.72586728 Ry
     Harris-Foulkes estimate   =    -983.49974739 Ry
     estimated scf accuracy    <      12.85377660 Ry

     total magnetization       =    10.00 Bohr mag/cell
     absolute magnetization    =    13.84 Bohr mag/cell

[...]

     Magnetic moment per site:
     atom:    1    charge:   14.3765    magn:    2.5645    constr:    0.0000
     atom:    2    charge:   14.4805    magn:    1.3949    constr:    0.0000
     atom:    3    charge:   14.4805    magn:    1.3949    constr:    0.0000
     atom:    4    charge:    2.0476    magn:   -0.0671    constr:    0.0000

     End of self-consistent calculation

 ------ SPIN UP ------------

          k = 0.0000 0.0000 0.0000 (  5065 PWs)   bands (ev):

   -71.2132 -70.0438 -70.0290 -37.2721 -37.2721 -37.2721 -36.1458 -36.1458
   -36.1458 -36.0791 -36.0791 -36.0791   5.9862  12.9167  12.9167  13.1594
    13.1594  13.1594  14.2319  14.2319  14.2319  16.1501  16.1501  16.7123
    16.7123  16.7123  17.0848  17.0848  20.8938  21.5051  21.5051

          k =-0.1000 0.1000 0.1000 (  5092 PWs)   bands (ev):

[...]

 ------ SPIN DOWN ----------

[...]

     the Fermi energy is    17.4350 ev

!    total energy              =    -999.32650399 Ry
     Harris-Foulkes estimate   =    -999.32650400 Ry
     estimated scf accuracy    <          6.8E-09 Ry

     The total energy is the sum of the following terms:

     one-electron contribution =    -391.56493315 Ry
     hartree contribution      =     229.22450726 Ry
     xc contribution           =    -110.85260677 Ry
     ewald contribution        =    -497.68287883 Ry
     one-center paw contrib.   =    -228.45062496 Ry
     smearing contrib. (-TS)   =       0.00003246 Ry

[...]

     convergence has been achieved in  19 iterations

     Forces acting on atoms (cartesian axes, Ry/au):

     atom    1 type  2   force =     0.00000000    0.00000000    0.00000000
     atom    2 type  2   force =     0.00000000    0.00000000    0.00000000
     atom    3 type  2   force =     0.00000000    0.00000000   -0.00000000
     atom    4 type  1   force =     0.00000000    0.00000000    0.00000000

     Total force =     0.000000     Total SCF correction =     0.000000

     Computing stress (Cartesian axis) and pressure

          total   stress  (Ry/bohr**3)                   (kbar)     P=      -51.68
  -0.00035133  -0.00000000  -0.00000000          -51.68       -0.00       -0.00
  -0.00000000  -0.00035133   0.00000000           -0.00      -51.68        0.00
   0.00000000   0.00000000  -0.00035133            0.00        0.00      -51.68

     BFGS Geometry Optimization

     number of scf cycles    =   1
     number of bfgs steps    =   0

     enthalpy new            =    -999.3265039911 Ry

     new trust radius        =       0.0306832133 bohr
     Message from routine volume:
     axis vectors are left-handed
     new conv_thr            =       0.0000000100 Ry

     new unit-cell volume =    297.12581 a.u.^3 (    44.02950 Ang^3 )
     density =      7.37766 g/cm^3

CELL_PARAMETERS (alat= 10.68640128)
   0.495608391   0.495608391  -0.000000000
   0.495608391  -0.000000000   0.495608391
  -0.000000000   0.495608391   0.495608391

ATOMIC_POSITIONS (crystal)
Fe            0.5000000000        0.5000000000        0.5000000000
Fe            0.2500000000        0.2500000000        0.2500000000
Fe            0.7500000000        0.7500000000        0.7500000000
Si            0.0000000000        0.0000000000        0.0000000000

     Writing output data file ./file.save/
     NEW-OLD atomic charge density approx. for the potential

     Check: negative core charge=   -0.000022
     extrapolated charge   50.60544, renormalised to   52.00000

[...]

     number of scf cycles    =   2
     number of bfgs steps    =   1

     enthalpy old            =    -999.3265039911 Ry
     enthalpy new            =    -999.3278026264 Ry

     CASE: enthalpy_new < enthalpy_old

     new trust radius        =       0.0025081133 bohr
     Message from routine volume:
     axis vectors are left-handed
     new conv_thr            =            1.0E-10 Ry

     new unit-cell volume =    297.77478 a.u.^3 (    44.12567 Ang^3 )
     density =      7.36158 g/cm^3

[...]

ATOMIC_POSITIONS (crystal)
Fe            0.5000000000        0.5000000000        0.5000000000
Fe            0.2500000000        0.2500000000        0.2500000000
Fe            0.7500000000        0.7500000000        0.7500000000
Si            0.0000000000        0.0000000000        0.0000000000

     Writing output data file ./file.save/
     NEW-OLD atomic charge density approx. for the potential

     Check: negative core charge=   -0.000022
     extrapolated charge   52.11332, renormalised to   52.00000

[...]

     Message from routine volume:
     axis vectors are left-handed

     bfgs converged in   3 scf cycles and   2 bfgs steps
     (criteria: energy <  1.0E-04 Ry, force <  1.0E-03Ry/Bohr, cell <  5.0E-01kbar)

     End of BFGS Geometry Optimization

     Final enthalpy =    -999.3278128103 Ry
Begin final coordinates
     new unit-cell volume =    297.77478 a.u.^3 (    44.12567 Ang^3 )
     density =      7.36158 g/cm^3

CELL_PARAMETERS (alat= 10.68640128)
   0.495968958   0.495968958  -0.000000000
   0.495968958  -0.000000000   0.495968958
  -0.000000000   0.495968958   0.495968958

ATOMIC_POSITIONS (crystal)
Fe            0.5000000000        0.5000000000        0.5000000000
Fe            0.2500000000        0.2500000000        0.2500000000
Fe            0.7500000000        0.7500000000        0.7500000000
Si            0.0000000000        0.0000000000        0.0000000000
End final coordinates

     Writing output data file ./file.save/

     Final scf calculation at the relaxed structure.
     The G-vectors are recalculated for the final unit cell
     Results may differ from those at the preceding step.

     bravais-lattice index     =            0
     lattice parameter (alat)  =      10.6864  a.u.
     unit-cell volume          =     297.7748 (a.u.)^3
     number of atoms/cell      =            4
     number of atomic types    =            2
     number of electrons       =        52.00
     number of Kohn-Sham states=           31
     kinetic-energy cutoff     =     100.0000  Ry
     charge density cutoff     =     700.0000  Ry
     convergence threshold     =      1.0E-10
     mixing beta               =       0.7000
     number of iterations used =            8  plain     mixing
     Exchange-correlation= PBE
                           (   1   4   3   4   0   0   0)

     celldm(1)=  10.686401  celldm(2)=   0.000000  celldm(3)=   0.000000
     celldm(4)=   0.000000  celldm(5)=   0.000000  celldm(6)=   0.000000

     crystal axes: (cart. coord. in units of alat)
               a(1) = (   0.495969   0.495969  -0.000000 )
               a(2) = (   0.495969  -0.000000   0.495969 )
               a(3) = (  -0.000000   0.495969   0.495969 )

     reciprocal axes: (cart. coord. in units 2 pi/alat)
               b(1) = (  1.008128  1.008128 -1.008128 )
               b(2) = (  1.008128 -1.008128  1.008128 )
               b(3) = ( -1.008128  1.008128  1.008128 )

     PseudoPot. # 1 for Si read from file:
     /home/max/workQE/Pseudos/Si.pbe-n-rrkjus_psl.1.0.0.UPF
     MD5 check sum: 0b0bb1205258b0d07b9f9672cf965d36
     Pseudo is Ultrasoft + core correction, Zval =  4.0
     Generated using "atomic" code by A. Dal Corso v.5.1
     Using radial grid of 1141 points,  6 beta functions with:
                l(1) =   0
                l(2) =   0
                l(3) =   1
                l(4) =   1
                l(5) =   2
                l(6) =   2
     Q(r) pseudized with 0 coefficients

     PseudoPot. # 2 for Fe read from file:
     /home/max/workQE/Pseudos/Fe.pbe-spn-kjpaw_psl.0.2.1.UPF
     MD5 check sum: e86618425769142926afa95317d90200
     Pseudo is Projector augmented-wave + core cor, Zval = 16.0
     Generated using "atomic" code by A. Dal Corso v.5.0.99 svn rev. 10869
     Shape of augmentation charge: PSQ
     Using radial grid of 1191 points,  6 beta functions with:
                l(1) =   0
                l(2) =   0
                l(3) =   1
                l(4) =   1
                l(5) =   2
                l(6) =   2
     Q(r) pseudized with 0 coefficients

     atomic species   valence    mass     pseudopotential
        Si             4.00    28.08500     Si( 1.00)
        Fe            16.00    55.84500     Fe( 1.00)

     Starting magnetic structure
     atomic species   magnetization
        Si          -0.031
        Fe           0.122

     48 Sym. Ops., with inversion, found

   Cartesian axes

     site n.     atom                  positions (alat units)
         1           Fe  tau(   1) = (   0.4959690   0.4959690   0.4959690  )
         2           Fe  tau(   2) = (   0.2479845   0.2479845   0.2479845  )
         3           Fe  tau(   3) = (   0.7439534   0.7439534   0.7439534  )
         4           Si  tau(   4) = (   0.0000000   0.0000000   0.0000000  )

     number of k points=    47  Marzari-Vanderbilt smearing, width (Ry)=  0.0050
                       cart. coord. in units 2pi/alat
        k(    1) = (   0.0000000   0.0000000   0.0000000), wk =   0.0010000
        k(    2) = (  -0.1008128   0.1008128   0.1008128), wk =   0.0080000
        k(    3) = (  -0.2016255   0.2016255   0.2016255), wk =   0.0080000
        k(    4) = (  -0.3024383   0.3024383   0.3024383), wk =   0.0080000
        k(    5) = (  -0.4032510   0.4032510   0.4032510), wk =   0.0080000
        k(    6) = (   0.5040638  -0.5040638  -0.5040638), wk =   0.0040000
        k(    7) = (   0.0000000   0.0000000   0.2016255), wk =   0.0060000
        k(    8) = (  -0.1008128   0.1008128   0.3024383), wk =   0.0240000
        k(    9) = (  -0.2016255   0.2016255   0.4032510), wk =   0.0240000
        k(   10) = (  -0.3024383   0.3024383   0.5040638), wk =   0.0240000
        k(   11) = (   0.6048766  -0.6048766  -0.4032510), wk =   0.0240000
        k(   12) = (   0.5040638  -0.5040638  -0.3024383), wk =   0.0240000
        k(   13) = (   0.4032510  -0.4032510  -0.2016255), wk =   0.0240000
        k(   14) = (   0.3024383  -0.3024383  -0.1008128), wk =   0.0240000
        k(   15) = (   0.2016255  -0.2016255   0.0000000), wk =   0.0120000
        k(   16) = (   0.0000000   0.0000000   0.4032510), wk =   0.0060000
        k(   17) = (  -0.1008128   0.1008128   0.5040638), wk =   0.0240000
        k(   18) = (  -0.2016255   0.2016255   0.6048766), wk =   0.0240000
        k(   19) = (   0.7056893  -0.7056893  -0.3024383), wk =   0.0240000
        k(   20) = (   0.6048766  -0.6048766  -0.2016255), wk =   0.0240000
        k(   21) = (   0.5040638  -0.5040638  -0.1008128), wk =   0.0240000
        k(   22) = (   0.4032510  -0.4032510   0.0000000), wk =   0.0120000
        k(   23) = (   0.0000000   0.0000000   0.6048766), wk =   0.0060000
        k(   24) = (  -0.1008128   0.1008128   0.7056893), wk =   0.0240000
        k(   25) = (   0.8065021  -0.8065021  -0.2016255), wk =   0.0240000
        k(   26) = (   0.7056893  -0.7056893  -0.1008128), wk =   0.0240000
        k(   27) = (   0.6048766  -0.6048766   0.0000000), wk =   0.0120000
        k(   28) = (   0.0000000   0.0000000   0.8065021), wk =   0.0060000
        k(   29) = (   0.9073148  -0.9073148  -0.1008128), wk =   0.0240000
        k(   30) = (   0.8065021  -0.8065021   0.0000000), wk =   0.0120000
        k(   31) = (   0.0000000   0.0000000  -1.0081276), wk =   0.0030000
        k(   32) = (   0.0000000   0.2016255   0.4032510), wk =   0.0240000
        k(   33) = (  -0.1008128   0.3024383   0.5040638), wk =   0.0480000
        k(   34) = (   0.8065021  -0.6048766  -0.4032510), wk =   0.0480000
        k(   35) = (   0.7056893  -0.5040638  -0.3024383), wk =   0.0240000
        k(   36) = (  -0.0000000   0.2016255   0.6048766), wk =   0.0240000
        k(   37) = (   0.9073148  -0.7056893  -0.3024383), wk =   0.0480000
        k(   38) = (   0.8065021  -0.6048766  -0.2016255), wk =   0.0480000
        k(   39) = (   0.7056893  -0.5040638  -0.1008128), wk =   0.0480000
        k(   40) = (   0.6048766  -0.4032510  -0.0000000), wk =   0.0240000
        k(   41) = (   1.0081276  -0.8065021  -0.2016255), wk =   0.0240000
        k(   42) = (   0.9073148  -0.7056893  -0.1008128), wk =   0.0480000
        k(   43) = (   0.8065021  -0.6048766   0.0000000), wk =   0.0240000
        k(   44) = (   0.0000000   0.2016255  -1.0081276), wk =   0.0120000
        k(   45) = (   1.0081276  -0.6048766  -0.2016255), wk =   0.0240000
        k(   46) = (   0.9073148  -0.5040638  -0.1008128), wk =   0.0240000
        k(   47) = (   0.0000000   0.4032510  -1.0081276), wk =   0.0120000

     Check: negative core charge=   -0.000022

     Initial potential from superposition of free atoms

     starting charge   51.99813, renormalised to   52.00000
     Starting wfcs are   43 randomized atomic wfcs
     Checking if some PAW data can be deallocated...

     Self-consistent Calculation

[...]

     total energy              =    -999.32777020 Ry
     Harris-Foulkes estimate   =    -999.32777020 Ry
     estimated scf accuracy    <          9.5E-09 Ry

[...]

     iteration # 14     ecut=   100.00 Ry     beta= 0.70
     Davidson diagonalization with overlap
     ethr =  7.41E-12,  avg # of iterations =  1.7

     Magnetic moment per site:
     atom:    1    charge:   14.4057    magn:    2.5419    constr:    0.0000
     atom:    2    charge:   14.5129    magn:    1.3704    constr:    0.0000
     atom:    3    charge:   14.5129    magn:    1.3704    constr:    0.0000
     atom:    4    charge:    2.0802    magn:   -0.0641    constr:    0.0000

     End of self-consistent calculation

 ------ SPIN UP ------------

[...]

 ------ SPIN DOWN ----------

[...]

          k =-0.0000 0.2016 0.6049 (  5029 PWs)   bands (ev):

[...]

          k = 0.0000 0.4033-1.0081 (  5052 PWs)   bands (ev):

   -67.9127 -67.9105 -67.7152 -34.1819 -34.1278 -34.0858 -34.0760 -33.9959
   -33.9935 -33.7973 -33.7702 -33.7486   9.2984  12.1499  12.8546  13.5721
    15.1171  16.0076  16.0897  16.2938  16.8312  17.0070  17.2287  17.8473
    18.7553  18.7579  18.8451  19.0820  19.5746  19.5768  19.6605

     the Fermi energy is    17.9305 ev

!    total energy              =    -999.32777020 Ry
     Harris-Foulkes estimate   =    -999.32777020 Ry
     estimated scf accuracy    <          1.0E-10 Ry

     The total energy is the sum of the following terms:

     one-electron contribution =    -385.20295957 Ry
     hartree contribution      =     226.98271741 Ry
     xc contribution           =    -110.92694841 Ry
     ewald contribution        =    -501.72785083 Ry
     one-center paw contrib.   =    -228.45269781 Ry
     smearing contrib. (-TS)   =      -0.00003099 Ry

     total magnetization       =     5.11 Bohr mag/cell
     absolute magnetization    =     5.55 Bohr mag/cell

     convergence has been achieved in  14 iterations

     Forces acting on atoms (cartesian axes, Ry/au):

     atom    1 type  2   force =    -0.00000000    0.00000000    0.00000000
     atom    2 type  2   force =     0.00000000    0.00000000   -0.00000000
     atom    3 type  2   force =    -0.00000000    0.00000000    0.00000000
     atom    4 type  1   force =     0.00000000    0.00000000    0.00000000

     Total force =     0.000000     Total SCF correction =     0.000000

     Computing stress (Cartesian axis) and pressure

          total   stress  (Ry/bohr**3)                   (kbar)     P=        0.05
   0.00000032   0.00000000  -0.00000000            0.05        0.00       -0.00
   0.00000000   0.00000032   0.00000000            0.00        0.05        0.00
  -0.00000000   0.00000000   0.00000032           -0.00        0.00        0.05

     Writing output data file ./file.save/

     General routines

     Parallel routines

   This run was terminated on:  18:34:52  21Nov2022

   JOB DONE.