     Program PWSCF v.7.1 starts on 21Nov2022 at 16:19:21
        Git branch: master
        Last git commit: ce561e80fa51fbc2904c59db0bf7fc0b825e1bb9
        Last git commit date: Thu Jun 16 14:15:26 2022 +0000
        Last git commit subject: Merge branch 'master-qe-7.1' into 'master'

     Waiting for input...
     Reading input from standard input

     Current dimensions of program PWSCF are:
     Max number of different atomic species (ntypx) = 10
     Max number of k-points (npk) =  40000
     Max angular momentum in pseudopotentials (lmaxx) =  4

     File ./bcc-Fe.update deleted, as requested

     File ./bcc-Fe.bfgs deleted, as requested
     file Fe.pbe-spn-kjpaw_psl.0.2.1.UPF: wavefunction(s)  3D renormalized

     IMPORTANT: XC functional enforced from input :
     Exchange-correlation= PBE
                           (   1   4   3   4   0   0   0)
     Any further DFT definition will be discarded
     Please, verify this is what you really want

     Message from routine setup:
     using ibrav=0 with symmetry is DISCOURAGED, use correct ibrav instead

     Subspace diagonalization in iterative solution of the eigenvalue problem:
     a serial algorithm will be used

     Using Slab Decomposition

     bravais-lattice index     =            0
     lattice parameter (alat)  =       5.4171  a.u.
     unit-cell volume          =      79.4827 (a.u.)^3
     number of atoms/cell      =            1
     number of atomic types    =            1
     number of electrons       =        16.00
     number of Kohn-Sham states=           12
     kinetic-energy cutoff     =     100.0000  Ry
     charge density cutoff     =     700.0000  Ry
     scf convergence threshold =      1.0E-08
     mixing beta               =       0.7000
     number of iterations used =            8  plain     mixing
     energy convergence thresh.=      1.0E-04
     force convergence thresh. =      1.0E-03
     press convergence thresh. =      5.0E-01
     Exchange-correlation= PBE
                           (   1   4   3   4   0   0   0)
     nstep                     =           50

     celldm(1)=   5.417108  celldm(2)=   0.000000  celldm(3)=   0.000000
     celldm(4)=   0.000000  celldm(5)=   0.000000  celldm(6)=   0.000000

     crystal axes: (cart. coord. in units of alat)
               a(1) = (  -0.500000   0.500000   0.500000 )
               a(2) = (   0.500000  -0.500000   0.500000 )
               a(3) = (   0.500000   0.500000  -0.500000 )

     reciprocal axes: (cart. coord. in units 2 pi/alat)
               b(1) = (  0.000000  1.000000  1.000000 )
               b(2) = (  1.000000  0.000000  1.000000 )
               b(3) = (  1.000000  1.000000  0.000000 )

     PseudoPot. # 1 for Fe read from file:
     ./Fe.pbe-spn-kjpaw_psl.0.2.1.UPF
     MD5 check sum: e86618425769142926afa95317d90200
     Pseudo is Projector augmented-wave + core cor, Zval = 16.0
     Generated using "atomic" code by A. Dal Corso  v.5.0.99 svn rev. 10869
     Shape of augmentation charge: PSQ
     Using radial grid of 1191 points,  6 beta functions with:
                l(1) =   0
                l(2) =   0
                l(3) =   1
                l(4) =   1
                l(5) =   2
                l(6) =   2
     Q(r) pseudized with 0 coefficients

     atomic species   valence    mass     pseudopotential
        Fe            16.00    55.84500     Fe( 1.00)

     Starting magnetic structure
     atomic species   magnetization
        Fe           1.000

     48 Sym. Ops., with inversion, found

   Cartesian axes

     site n.     atom                  positions (alat units)
         1           Fe  tau(   1) = (   0.0000000   0.0000000   0.0000000  )

     number of k points=   256  Marzari-Vanderbilt smearing, width (Ry)=  0.0050

     Number of k-points >= 100: set verbosity='high' to print them.

     Check: negative core charge=   -0.000029
     Generating pointlists ...
     new r_m :   0.3572 (alat units)  1.9352 (a.u.) for type    1

     Initial potential from superposition of free atoms

     starting charge      15.9996, renormalised to      16.0000
     Starting wfcs are   13 randomized atomic wfcs
     Checking if some PAW data can be deallocated...

     Self-consistent Calculation

     iteration #  1     ecut=   100.00 Ry     beta= 0.70
     Davidson diagonalization with overlap
     ethr =  1.00E-02,  avg # of iterations =  3.2

     negative rho (up, down):  0.000E+00 1.144E-04

     total energy              =    -328.31959424 Ry
     estimated scf accuracy    <       3.66732149 Ry

     total magnetization       =     5.32 Bohr mag/cell
     absolute magnetization    =     5.32 Bohr mag/cell

[...]

     Magnetic moment per site  (integrated on atomic sphere of radius R)
     atom   1 (R=0.357)  charge= 14.4192  magn=  2.2819

     End of self-consistent calculation

     Number of k-points >= 100: set verbosity='high' to print the bands.

     the Fermi energy is    17.4459 ev

!    total energy              =    -329.27122918 Ry
     total all-electron energy =     -2545.567765 Ry
     estimated scf accuracy    <          6.8E-10 Ry
     smearing contrib. (-TS)   =      -0.00001094 Ry
     internal energy E=F+TS    =    -329.27121824 Ry

     The total energy is F=E-TS. E is the sum of the following terms:
     one-electron contribution =    -112.90165317 Ry
     hartree contribution      =      66.57045236 Ry
     xc contribution           =     -34.80620871 Ry
     ewald contribution        =    -171.98176526 Ry
     one-center paw contrib.   =     -76.15204347 Ry

[...]

     convergence has been achieved in  11 iterations

[...]

     Forces acting on atoms (cartesian axes, Ry/au):

     atom    1 type  1   force =     0.00000000    0.00000000    0.00000000

     Total force =     0.000000     Total SCF correction =     0.000000

     Computing stress (Cartesian axis) and pressure

     negative rho (up, down):  0.000E+00 5.599E-05
          total   stress  (Ry/bohr**3)                   (kbar)     P=      -60.65
  -0.00041227   0.00000000   0.00000000          -60.65        0.00        0.00
   0.00000000  -0.00041227   0.00000000            0.00      -60.65        0.00
   0.00000000   0.00000000  -0.00041227            0.00        0.00      -60.65

     BFGS Geometry Optimization
     Energy error            =      0.0E+00 Ry
     Gradient error          =      0.0E+00 Ry/Bohr
     Cell gradient error     =      6.1E+01 kbar

     number of scf cycles    =   1
     number of bfgs steps    =   0

     enthalpy           new  =    -329.2712291796 Ry

     new trust radius        =       0.0183777244 bohr
     new conv_thr            =       0.0000000100 Ry

     new unit-cell volume =     77.05027 a.u.^3 (    11.41767 Ang^3 )
     density =      8.12187 g/cm^3

CELL_PARAMETERS (alat=  5.41710781)
  -0.494846580   0.494846580   0.494846580
   0.494846580  -0.494846580   0.494846580
   0.494846580   0.494846580  -0.494846580

ATOMIC_POSITIONS (crystal)
Fe            0.0000000000        0.0000000000        0.0000000000

     Writing config-only to output data dir ./bcc-Fe.save/
     NEW-OLD atomic charge density approx. for the potential

     Check: negative core charge=   -0.000030

     negative rho (up, down):  0.000E+00 5.646E-05
     extrapolated charge   15.49491, renormalised to   16.00000
     Generating pointlists ...
     new r_m :   0.3536 (alat units)  1.9152 (a.u.) for type    1

[...]

     Energy error            =      5.3E-04 Ry
     Gradient error          =      0.0E+00 Ry/Bohr
     Cell gradient error     =      4.5E+00 kbar

     number of scf cycles    =   2
     number of bfgs steps    =   1

     enthalpy           old  =    -329.2712291796 Ry
     enthalpy           new  =    -329.2717573733 Ry

     CASE: enthalpy          _new < enthalpy          _old

     new trust radius        =       0.0014174896 bohr
     new conv_thr            =            1.0E-10 Ry

     new unit-cell volume =     76.86378 a.u.^3 (    11.39004 Ang^3 )
     density =      8.14157 g/cm^3

[...]

ATOMIC_POSITIONS (crystal)
Fe            0.0000000000        0.0000000000        0.0000000000

     Writing config-only to output data dir ./bcc-Fe.save/
     NEW-OLD atomic charge density approx. for the potential

     Check: negative core charge=   -0.000031

     negative rho (up, down):  0.000E+00 5.008E-05
     extrapolated charge   15.96118, renormalised to   16.00000
     Generating pointlists ...

[...]

     Energy error            =      2.8E-06 Ry
     Gradient error          =      0.0E+00 Ry/Bohr
     Cell gradient error     =      3.7E-01 kbar

     bfgs converged in   3 scf cycles and   2 bfgs steps
     (criteria: energy <  1.0E-04 Ry, force <  1.0E-03 Ry/Bohr, cell <  5.0E-01 kbar)

     End of BFGS Geometry Optimization

     Final enthalpy           =    -329.2717602232 Ry

     File ./bcc-Fe.bfgs deleted, as requested
Begin final coordinates
     new unit-cell volume =     76.86378 a.u.^3 (    11.39004 Ang^3 )
     density =      8.14157 g/cm^3

CELL_PARAMETERS (alat=  5.41710781)
  -0.494447028   0.494447028   0.494447028
   0.494447028  -0.494447028   0.494447028
   0.494447028   0.494447028  -0.494447028

ATOMIC_POSITIONS (crystal)
Fe            0.0000000000        0.0000000000        0.0000000000
End final coordinates

     Writing config-only to output data dir ./bcc-Fe.save/

     Final scf calculation at the relaxed structure.
     The G-vectors are recalculated for the final unit cell
     Results may differ from those at the preceding step.

     Using Slab Decomposition

     bravais-lattice index     =            0
     lattice parameter (alat)  =       5.4171  a.u.
     unit-cell volume          =      76.8638 (a.u.)^3
     number of atoms/cell      =            1
     number of atomic types    =            1
     number of electrons       =        16.00
     number of Kohn-Sham states=           12
     kinetic-energy cutoff     =     100.0000  Ry
     charge density cutoff     =     700.0000  Ry
     scf convergence threshold =      1.0E-10
     mixing beta               =       0.7000
     number of iterations used =            8  plain     mixing
     press convergence thresh. =      5.0E-01
     Exchange-correlation= PBE
                           (   1   4   3   4   0   0   0)

     celldm(1)=   5.417108  celldm(2)=   0.000000  celldm(3)=   0.000000
     celldm(4)=   0.000000  celldm(5)=   0.000000  celldm(6)=   0.000000

     crystal axes: (cart. coord. in units of alat)
               a(1) = (  -0.494447   0.494447   0.494447 )
               a(2) = (   0.494447  -0.494447   0.494447 )
               a(3) = (   0.494447   0.494447  -0.494447 )

     reciprocal axes: (cart. coord. in units 2 pi/alat)
               b(1) = (  0.000000  1.011231  1.011231 )
               b(2) = (  1.011231  0.000000  1.011231 )
               b(3) = (  1.011231  1.011231  0.000000 )

     PseudoPot. # 1 for Fe read from file:
     ./Fe.pbe-spn-kjpaw_psl.0.2.1.UPF
     MD5 check sum: e86618425769142926afa95317d90200
     Pseudo is Projector augmented-wave + core cor, Zval = 16.0
     Generated using "atomic" code by A. Dal Corso  v.5.0.99 svn rev. 10869
     Shape of augmentation charge: PSQ
     Using radial grid of 1191 points,  6 beta functions with:
                l(1) =   0
                l(2) =   0
                l(3) =   1
                l(4) =   1
                l(5) =   2
                l(6) =   2
     Q(r) pseudized with 0 coefficients

     atomic species   valence    mass     pseudopotential
        Fe            16.00    55.84500     Fe( 1.00)

     Starting magnetic structure
     atomic species   magnetization
        Fe           0.155

     48 Sym. Ops., with inversion, found

   Cartesian axes

     site n.     atom                  positions (alat units)
         1           Fe  tau(   1) = (   0.0000000   0.0000000   0.0000000  )

     number of k points=   256  Marzari-Vanderbilt smearing, width (Ry)=  0.0050

     Number of k-points >= 100: set verbosity='high' to print them.

     Check: negative core charge=   -0.000030
     Generating pointlists ...

     Initial potential from superposition of free atoms

     starting charge      15.9996, renormalised to      16.0000
     Starting wfcs are   13 randomized atomic wfcs
     Checking if some PAW data can be deallocated...

     Self-consistent Calculation

     iteration #  1     ecut=   100.00 Ry     beta= 0.70
     Davidson diagonalization with overlap
     c_bands:  1 eigenvalues not converged
     c_bands:  1 eigenvalues not converged
     c_bands:  1 eigenvalues not converged
     c_bands:  1 eigenvalues not converged
     c_bands:  1 eigenvalues not converged
     c_bands:  1 eigenvalues not converged
     c_bands:  1 eigenvalues not converged
     c_bands:  1 eigenvalues not converged
     c_bands:  1 eigenvalues not converged
     c_bands:  1 eigenvalues not converged
     c_bands:  1 eigenvalues not converged
     c_bands:  1 eigenvalues not converged
     c_bands:  1 eigenvalues not converged
     c_bands:  1 eigenvalues not converged
     c_bands:  1 eigenvalues not converged
     c_bands:  1 eigenvalues not converged
     c_bands:  1 eigenvalues not converged
     c_bands:  1 eigenvalues not converged
     c_bands:  1 eigenvalues not converged
     c_bands:  1 eigenvalues not converged
     c_bands:  1 eigenvalues not converged
     c_bands:  1 eigenvalues not converged
     c_bands:  1 eigenvalues not converged
     c_bands:  1 eigenvalues not converged
     c_bands:  1 eigenvalues not converged
     c_bands:  1 eigenvalues not converged
     c_bands:  1 eigenvalues not converged
     c_bands:  1 eigenvalues not converged
     c_bands:  1 eigenvalues not converged
     c_bands:  1 eigenvalues not converged
     c_bands:  1 eigenvalues not converged
     c_bands:  1 eigenvalues not converged
     c_bands:  1 eigenvalues not converged
     c_bands:  1 eigenvalues not converged
     c_bands:  1 eigenvalues not converged
     c_bands:  1 eigenvalues not converged
     c_bands:  1 eigenvalues not converged
     c_bands:  1 eigenvalues not converged
     c_bands:  1 eigenvalues not converged
     c_bands:  1 eigenvalues not converged
     c_bands:  1 eigenvalues not converged
     c_bands:  1 eigenvalues not converged
     c_bands:  1 eigenvalues not converged
     c_bands:  1 eigenvalues not converged
     c_bands:  1 eigenvalues not converged
     c_bands:  1 eigenvalues not converged
     c_bands:  1 eigenvalues not converged
     c_bands:  1 eigenvalues not converged
     ethr =  1.00E-06,  avg # of iterations = 14.5

[...]

     total energy              =    -329.27174071 Ry
     estimated scf accuracy    <          2.8E-10 Ry

[...]

     iteration # 10     ecut=   100.00 Ry     beta= 0.70
     Davidson diagonalization with overlap
     ethr =  1.72E-12,  avg # of iterations =  4.9

[...]

     Magnetic moment per site  (integrated on atomic sphere of radius R)
     atom   1 (R=0.354)  charge= 14.3968  magn=  2.2265

     End of self-consistent calculation

     Number of k-points >= 100: set verbosity='high' to print the bands.

     the Fermi energy is    18.2178 ev

!    total energy              =    -329.27174071 Ry
     total all-electron energy =     -2545.568276 Ry
     estimated scf accuracy    <          7.8E-11 Ry
     smearing contrib. (-TS)   =      -0.00004617 Ry
     internal energy E=F+TS    =    -329.27169454 Ry

     The total energy is F=E-TS. E is the sum of the following terms:
     one-electron contribution =    -109.82026539 Ry
     hartree contribution      =      65.43920377 Ry
     xc contribution           =     -34.82423621 Ry
     ewald contribution        =    -173.91323587 Ry
     one-center paw contrib.   =     -76.15316084 Ry

     total magnetization       =     2.18 Bohr mag/cell
     absolute magnetization    =     2.30 Bohr mag/cell

     convergence has been achieved in  10 iterations

     negative rho (up, down):  0.000E+00 4.930E-05

     Forces acting on atoms (cartesian axes, Ry/au):

     atom    1 type  1   force =     0.00000000    0.00000000    0.00000000

     Total force =     0.000000     Total SCF correction =     0.000000

     Computing stress (Cartesian axis) and pressure

     negative rho (up, down):  0.000E+00 4.930E-05
          total   stress  (Ry/bohr**3)                   (kbar)     P=       -0.04
  -0.00000025   0.00000000   0.00000000           -0.04        0.00        0.00
   0.00000000  -0.00000025   0.00000000            0.00       -0.04        0.00
   0.00000000  -0.00000000  -0.00000025            0.00       -0.00       -0.04

     Writing all to output data dir ./bcc-Fe.save/

     General routines

     Parallel routines

   This run was terminated on:  16:36:37  21Nov2022

   JOB DONE.