     Program PWSCF v.6.5 starts on 17Nov2022 at 21:45:29

     Reading input from Silicon_vcrelax.in

     Current dimensions of program PWSCF are:
     Max number of different atomic species (ntypx) = 10
     Max number of k-points (npk) =  40000
     Max angular momentum in pseudopotentials (lmaxx) =  3
     Message from routine volume:
     axis vectors are left-handed

     IMPORTANT: XC functional enforced from input :
     Exchange-correlation= PBE
                           (   1   4   3   4   0   0   0)
     Any further DFT definition will be discarded
     Please, verify this is what you really want

     Subspace diagonalization in iterative solution of the eigenvalue problem:
     a serial algorithm will be used

     Message from routine setup:
     using ibrav=0 with symmetry is DISCOURAGED, use correct ibrav instead

     bravais-lattice index     =            0
     lattice parameter (alat)  =      10.1686  a.u.
     unit-cell volume          =     262.8607 (a.u.)^3
     number of atoms/cell      =            2
     number of atomic types    =            1
     number of electrons       =         8.00
     number of Kohn-Sham states=            8
     kinetic-energy cutoff     =      34.0000  Ry
     charge density cutoff     =     136.0000  Ry
     convergence threshold     =      1.0E-08
     mixing beta               =       0.7000
     number of iterations used =            8  plain     mixing
     Exchange-correlation= PBE
                           (   1   4   3   4   0   0   0)
     nstep                     =           50

     celldm(1)=  10.168616  celldm(2)=   0.000000  celldm(3)=   0.000000
     celldm(4)=   0.000000  celldm(5)=   0.000000  celldm(6)=   0.000000

     crystal axes: (cart. coord. in units of alat)
               a(1) = (   0.500000   0.500000   0.000000 )
               a(2) = (   0.500000   0.000000   0.500000 )
               a(3) = (   0.000000   0.500000   0.500000 )

     reciprocal axes: (cart. coord. in units 2 pi/alat)
               b(1) = (  1.000000  1.000000 -1.000000 )
               b(2) = (  1.000000 -1.000000  1.000000 )
               b(3) = ( -1.000000  1.000000  1.000000 )

     PseudoPot. # 1 for Si read from file:
     /home/max/workQE/Pseudos/Si.pbe-n-rrkjus_psl.1.0.0.UPF
     MD5 check sum: 0b0bb1205258b0d07b9f9672cf965d36
     Pseudo is Ultrasoft + core correction, Zval =  4.0
     Generated using "atomic" code by A. Dal Corso v.5.1
     Using radial grid of 1141 points,  6 beta functions with:
                l(1) =   0
                l(2) =   0
                l(3) =   1
                l(4) =   1
                l(5) =   2
                l(6) =   2
     Q(r) pseudized with 0 coefficients

     atomic species   valence    mass     pseudopotential
        Si             4.00    28.08500     Si( 1.00)

     48 Sym. Ops., with inversion, found (24 have fractional translation)

   Cartesian axes

     site n.     atom                  positions (alat units)
         1           Si  tau(   1) = (   0.0000000   0.0000000   0.0000000  )
         2           Si  tau(   2) = (   0.2500000   0.2500000   0.2500000  )

     number of k points=    20  Marzari-Vanderbilt smearing, width (Ry)=  0.0050
                       cart. coord. in units 2pi/alat
        k(    1) = (   0.0000000   0.0000000   0.0000000), wk =   0.0058309
        k(    2) = (  -0.1428571   0.1428571   0.1428571), wk =   0.0466472
        k(    3) = (  -0.2857143   0.2857143   0.2857143), wk =   0.0466472
        k(    4) = (  -0.4285714   0.4285714   0.4285714), wk =   0.0466472
        k(    5) = (   0.0000000   0.0000000   0.2857143), wk =   0.0349854
        k(    6) = (  -0.1428571   0.1428571   0.4285714), wk =   0.1399417
        k(    7) = (  -0.2857143   0.2857143   0.5714286), wk =   0.1399417
        k(    8) = (   0.5714286  -0.5714286  -0.2857143), wk =   0.1399417
        k(    9) = (   0.4285714  -0.4285714  -0.1428571), wk =   0.1399417
        k(   10) = (   0.2857143  -0.2857143  -0.0000000), wk =   0.0699708
        k(   11) = (   0.0000000   0.0000000   0.5714286), wk =   0.0349854
        k(   12) = (  -0.1428571   0.1428571   0.7142857), wk =   0.1399417
        k(   13) = (   0.7142857  -0.7142857  -0.1428571), wk =   0.1399417
        k(   14) = (   0.5714286  -0.5714286   0.0000000), wk =   0.0699708
        k(   15) = (   0.0000000   0.0000000   0.8571429), wk =   0.0349854
        k(   16) = (   0.8571429  -0.8571429  -0.0000000), wk =   0.0699708
        k(   17) = (   0.0000000   0.2857143   0.5714286), wk =   0.1399417
        k(   18) = (   0.8571429  -0.5714286  -0.2857143), wk =   0.2798834
        k(   19) = (   1.0000000  -0.7142857  -0.1428571), wk =   0.1399417
        k(   20) = (   0.8571429  -0.5714286   0.0000000), wk =   0.1399417

     Check: negative core charge=   -0.000002

     Initial potential from superposition of free atoms

     starting charge    7.99888, renormalised to    8.00000
     Starting wfcs are    8 randomized atomic wfcs

     Self-consistent Calculation

     iteration #  1     ecut=    34.00 Ry     beta= 0.70
     Davidson diagonalization with overlap
     ethr =  1.00E-02,  avg # of iterations =  3.6

     Threshold (ethr) on eigenvalues was too large:
     Diagonalizing with lowered threshold

     Davidson diagonalization with overlap
     ethr =  7.48E-04,  avg # of iterations =  1.2

     total energy              =     -22.83450637 Ry
     Harris-Foulkes estimate   =     -22.84962312 Ry
     estimated scf accuracy    <       0.05926497 Ry

[...]

     End of self-consistent calculation

          k = 0.0000 0.0000 0.0000 (   893 PWs)   bands (ev):

    -5.6564   6.4985   6.4985   6.4985   9.0706   9.0706   9.0706  10.1787

          k =-0.1429 0.1429 0.1429 (   893 PWs)   bands (ev):

[...]

     the Fermi energy is     6.5611 ev

!    total energy              =     -22.83726433 Ry
     Harris-Foulkes estimate   =     -22.83726432 Ry
     estimated scf accuracy    <          9.3E-09 Ry

     The total energy is the sum of the following terms:

     one-electron contribution =       5.38019829 Ry
     hartree contribution      =       1.07821859 Ry
     xc contribution           =     -12.34377155 Ry
     ewald contribution        =     -16.95191680 Ry
     smearing contrib. (-TS)   =       0.00000713 Ry

     convergence has been achieved in   5 iterations

     Forces acting on atoms (cartesian axes, Ry/au):

     atom    1 type  1   force =     0.00000000   -0.00000000   -0.00000000
     atom    2 type  1   force =    -0.00000000    0.00000000    0.00000000

     Total force =     0.000000     Total SCF correction =     0.000000

     Computing stress (Cartesian axis) and pressure

          total   stress  (Ry/bohr**3)                   (kbar)     P=       48.46
   0.00032943  -0.00000000  -0.00000000           48.46       -0.00       -0.00
  -0.00000000   0.00032943  -0.00000000           -0.00       48.46       -0.00
  -0.00000000  -0.00000000   0.00032943           -0.00       -0.00       48.46

     BFGS Geometry Optimization

     number of scf cycles    =   1
     number of bfgs steps    =   0

     enthalpy new            =     -22.8372643309 Ry

     new trust radius        =       0.0267049255 bohr
     Message from routine volume:
     axis vectors are left-handed
     new conv_thr            =       0.0000000100 Ry

     new unit-cell volume =    269.40879 a.u.^3 (    39.92226 Ang^3 )
     density =      2.33635 g/cm^3

CELL_PARAMETERS (alat= 10.16861632)
   0.504117832   0.504117832  -0.000000000
   0.504117832  -0.000000000   0.504117832
  -0.000000000   0.504117832   0.504117832

ATOMIC_POSITIONS (crystal)
Si            0.0000000000        0.0000000000       -0.0000000000
Si            0.2500000000        0.2500000000        0.2500000000

     Writing output data file ./Silicon.save/
     NEW-OLD atomic charge density approx. for the potential

     Check: negative core charge=   -0.000002
     extrapolated charge    8.19442, renormalised to    8.00000

[...]

     enthalpy old            =     -22.8372643309 Ry
     enthalpy new            =     -22.8388408814 Ry

     CASE: enthalpy_new < enthalpy_old

[...]

     number of scf cycles    =   3
     number of bfgs steps    =   2

     enthalpy old            =     -22.8388408814 Ry
     enthalpy new            =     -22.8393455435 Ry

     CASE: enthalpy_new < enthalpy_old

     new trust radius        =       0.0019024946 bohr
     Message from routine volume:
     axis vectors are left-handed
     new conv_thr            =            1.0E-10 Ry

     new unit-cell volume =    276.04718 a.u.^3 (    40.90597 Ang^3 )
     density =      2.28017 g/cm^3

[...]

ATOMIC_POSITIONS (crystal)
Si            0.0000000000        0.0000000000       -0.0000000000
Si            0.2500000000        0.2500000000        0.2500000000

     Writing output data file ./Silicon.save/
     NEW-OLD atomic charge density approx. for the potential

     Check: negative core charge=   -0.000002
     extrapolated charge    8.01373, renormalised to    8.00000

[...]

     Threshold (ethr) on eigenvalues was too large:
     Diagonalizing with lowered threshold

     Davidson diagonalization with overlap
     ethr =  1.38E-08,  avg # of iterations =  1.1

[...]

     Message from routine volume:
     axis vectors are left-handed

     bfgs converged in   4 scf cycles and   3 bfgs steps
     (criteria: energy <  1.0E-04 Ry, force <  1.0E-03Ry/Bohr, cell <  5.0E-01kbar)

     End of BFGS Geometry Optimization

     Final enthalpy =     -22.8393482332 Ry
Begin final coordinates
     new unit-cell volume =    276.04718 a.u.^3 (    40.90597 Ang^3 )
     density =      2.28017 g/cm^3

CELL_PARAMETERS (alat= 10.16861632)
   0.508224871   0.508224871  -0.000000000
   0.508224871  -0.000000000   0.508224871
  -0.000000000   0.508224871   0.508224871

ATOMIC_POSITIONS (crystal)
Si            0.0000000000        0.0000000000       -0.0000000000
Si            0.2500000000        0.2500000000        0.2500000000
End final coordinates

     Writing output data file ./Silicon.save/

     Final scf calculation at the relaxed structure.
     The G-vectors are recalculated for the final unit cell
     Results may differ from those at the preceding step.

     bravais-lattice index     =            0
     lattice parameter (alat)  =      10.1686  a.u.
     unit-cell volume          =     276.0472 (a.u.)^3
     number of atoms/cell      =            2
     number of atomic types    =            1
     number of electrons       =         8.00
     number of Kohn-Sham states=            8
     kinetic-energy cutoff     =      34.0000  Ry
     charge density cutoff     =     136.0000  Ry
     convergence threshold     =      1.0E-10
     mixing beta               =       0.7000
     number of iterations used =            8  plain     mixing
     Exchange-correlation= PBE
                           (   1   4   3   4   0   0   0)

     celldm(1)=  10.168616  celldm(2)=   0.000000  celldm(3)=   0.000000
     celldm(4)=   0.000000  celldm(5)=   0.000000  celldm(6)=   0.000000

     crystal axes: (cart. coord. in units of alat)
               a(1) = (   0.508225   0.508225  -0.000000 )
               a(2) = (   0.508225  -0.000000   0.508225 )
               a(3) = (  -0.000000   0.508225   0.508225 )

     reciprocal axes: (cart. coord. in units 2 pi/alat)
               b(1) = (  0.983816  0.983816 -0.983816 )
               b(2) = (  0.983816 -0.983816  0.983816 )
               b(3) = ( -0.983816  0.983816  0.983816 )

     PseudoPot. # 1 for Si read from file:
     /home/max/workQE/Pseudos/Si.pbe-n-rrkjus_psl.1.0.0.UPF
     MD5 check sum: 0b0bb1205258b0d07b9f9672cf965d36
     Pseudo is Ultrasoft + core correction, Zval =  4.0
     Generated using "atomic" code by A. Dal Corso v.5.1
     Using radial grid of 1141 points,  6 beta functions with:
                l(1) =   0
                l(2) =   0
                l(3) =   1
                l(4) =   1
                l(5) =   2
                l(6) =   2
     Q(r) pseudized with 0 coefficients

     atomic species   valence    mass     pseudopotential
        Si             4.00    28.08500     Si( 1.00)

     48 Sym. Ops., with inversion, found (24 have fractional translation)

   Cartesian axes

     site n.     atom                  positions (alat units)
         1           Si  tau(   1) = (   0.0000000   0.0000000  -0.0000000  )
         2           Si  tau(   2) = (   0.2541124   0.2541124   0.2541124  )

     number of k points=    20  Marzari-Vanderbilt smearing, width (Ry)=  0.0050
                       cart. coord. in units 2pi/alat
        k(    1) = (   0.0000000   0.0000000   0.0000000), wk =   0.0058309
        k(    2) = (  -0.1405452   0.1405452   0.1405452), wk =   0.0466472
        k(    3) = (  -0.2810904   0.2810904   0.2810904), wk =   0.0466472
        k(    4) = (  -0.4216356   0.4216356   0.4216356), wk =   0.0466472
        k(    5) = (   0.0000000   0.0000000   0.2810904), wk =   0.0349854
        k(    6) = (  -0.1405452   0.1405452   0.4216356), wk =   0.1399417
        k(    7) = (  -0.2810904   0.2810904   0.5621808), wk =   0.1399417
        k(    8) = (   0.5621808  -0.5621808  -0.2810904), wk =   0.1399417
        k(    9) = (   0.4216356  -0.4216356  -0.1405452), wk =   0.1399417
        k(   10) = (   0.2810904  -0.2810904  -0.0000000), wk =   0.0699708
        k(   11) = (   0.0000000   0.0000000   0.5621808), wk =   0.0349854
        k(   12) = (  -0.1405452   0.1405452   0.7027261), wk =   0.1399417
        k(   13) = (   0.7027261  -0.7027261  -0.1405452), wk =   0.1399417
        k(   14) = (   0.5621808  -0.5621808   0.0000000), wk =   0.0699708
        k(   15) = (   0.0000000   0.0000000   0.8432713), wk =   0.0349854
        k(   16) = (   0.8432713  -0.8432713   0.0000000), wk =   0.0699708
        k(   17) = (   0.0000000   0.2810904   0.5621808), wk =   0.1399417
        k(   18) = (   0.8432713  -0.5621808  -0.2810904), wk =   0.2798834
        k(   19) = (   0.9838165  -0.7027261  -0.1405452), wk =   0.1399417
        k(   20) = (   0.8432713  -0.5621808  -0.0000000), wk =   0.1399417

     Check: negative core charge=   -0.000002

     Initial potential from superposition of free atoms

     starting charge    7.99888, renormalised to    8.00000
     Starting wfcs are    8 randomized atomic wfcs

     Self-consistent Calculation

[...]

     total energy              =     -22.83936775 Ry
     Harris-Foulkes estimate   =     -22.83936775 Ry
     estimated scf accuracy    <          2.9E-10 Ry

     iteration #  7     ecut=    34.00 Ry     beta= 0.70
     Davidson diagonalization with overlap
     ethr =  3.64E-12,  avg # of iterations =  3.5

     End of self-consistent calculation

[...]

          k =-0.1405 0.1405 0.7027 (   930 PWs)   bands (ev):

[...]

          k = 0.8433-0.5622-0.0000 (   922 PWs)   bands (ev):

    -2.1696  -1.1080   1.8391   2.9556   8.7251  10.8191  11.5556  11.7161

     the Fermi energy is     6.0475 ev

!    total energy              =     -22.83936775 Ry
     Harris-Foulkes estimate   =     -22.83936775 Ry
     estimated scf accuracy    <          3.0E-11 Ry

     The total energy is the sum of the following terms:

     one-electron contribution =       5.00064446 Ry
     hartree contribution      =       1.12133049 Ry
     xc contribution           =     -12.28377485 Ry
     ewald contribution        =     -16.67757498 Ry
     smearing contrib. (-TS)   =       0.00000713 Ry

     convergence has been achieved in   7 iterations

     Forces acting on atoms (cartesian axes, Ry/au):

     atom    1 type  1   force =    -0.00000000    0.00000000   -0.00000000
     atom    2 type  1   force =     0.00000000   -0.00000000    0.00000000

     Total force =     0.000000     Total SCF correction =     0.000000

     Computing stress (Cartesian axis) and pressure

          total   stress  (Ry/bohr**3)                   (kbar)     P=        0.02
   0.00000015   0.00000000   0.00000000            0.02        0.00        0.00
   0.00000000   0.00000015   0.00000000            0.00        0.02        0.00
  -0.00000000   0.00000000   0.00000015           -0.00        0.00        0.02

     Writing output data file ./Silicon.save/

     General routines

     Parallel routines

   This run was terminated on:  21:45:54  17Nov2022

   JOB DONE.