     Program PWSCF v.6.8 starts on  3Dec2022 at 19:32:39

     R & G space division:  proc/nbgrp/npool/nimage =      16

     Reading input from b54_Fe48_Si6.in

     Current dimensions of program PWSCF are:
     Max number of different atomic species (ntypx) = 10
     Max number of k-points (npk) =  40000
     Max angular momentum in pseudopotentials (lmaxx) =  4
     file Fe.pbe-spn-kjpaw_psl.0.2.1.UPF: wavefunction(s)  3D renormalized

     IMPORTANT: XC functional enforced from input :
     Exchange-correlation= PBE
                           (   1   4   3   4   0   0   0)
     Any further DFT definition will be discarded
     Please, verify this is what you really want

     Message from routine setup:
     using ibrav=0 with symmetry is DISCOURAGED, use correct ibrav instead

     Using Slab Decomposition

     bravais-lattice index     =            0
     lattice parameter (alat)  =      16.1774  a.u.
     unit-cell volume          =    4233.7721 (a.u.)^3
     number of atoms/cell      =           54
     number of atomic types    =            2
     number of electrons       =       792.00
     number of Kohn-Sham states=          475
     kinetic-energy cutoff     =      65.0000  Ry
     charge density cutoff     =     450.0000  Ry
     scf convergence threshold =      1.0E-08
     mixing beta               =       0.7000
     number of iterations used =            8  plain     mixing
     Exchange-correlation= PBE
                           (   1   4   3   4   0   0   0)

     celldm(1)=  16.177416  celldm(2)=   0.000000  celldm(3)=   0.000000
     celldm(4)=   0.000000  celldm(5)=   0.000000  celldm(6)=   0.000000

     crystal axes: (cart. coord. in units of alat)
               a(1) = (   1.000000   0.000000   0.000000 )
               a(2) = (   0.000000   1.000000   0.000000 )
               a(3) = (   0.000000   0.000000   1.000000 )

     reciprocal axes: (cart. coord. in units 2 pi/alat)
               b(1) = (  1.000000  0.000000  0.000000 )
               b(2) = (  0.000000  1.000000  0.000000 )
               b(3) = (  0.000000  0.000000  1.000000 )

     PseudoPot. # 1 for Si read from file:
     ./Si.pbe-n-rrkjus_psl.1.0.0.UPF
     MD5 check sum: 0b0bb1205258b0d07b9f9672cf965d36
     Pseudo is Ultrasoft + core correction, Zval =  4.0
     Generated using "atomic" code by A. Dal Corso  v.5.1
     Using radial grid of 1141 points,  6 beta functions with:
                l(1) =   0
                l(2) =   0
                l(3) =   1
                l(4) =   1
                l(5) =   2
                l(6) =   2
     Q(r) pseudized with 0 coefficients

     PseudoPot. # 2 for Fe read from file:
     ./Fe.pbe-spn-kjpaw_psl.0.2.1.UPF
     MD5 check sum: e86618425769142926afa95317d90200
     Pseudo is Projector augmented-wave + core cor, Zval = 16.0
     Generated using "atomic" code by A. Dal Corso  v.5.0.99 svn rev. 10869
     Shape of augmentation charge: PSQ
     Using radial grid of 1191 points,  6 beta functions with:
                l(1) =   0
                l(2) =   0
                l(3) =   1
                l(4) =   1
                l(5) =   2
                l(6) =   2
     Q(r) pseudized with 0 coefficients

     atomic species   valence    mass     pseudopotential
        Si             4.00    28.08500     Si( 1.00)
        Fe            16.00    55.84500     Fe( 1.00)

     Starting magnetic structure
     atomic species   magnetization
        Si           1.000
        Fe           1.000

     48 Sym. Ops., with inversion, found

   Cartesian axes

     site n.     atom                  positions (alat units)
         1           Fe  tau(   1) = (   0.0000000   0.0000000   0.0000000  )
         2           Fe  tau(   2) = (   0.1666670   0.1666670   0.1666670  )
         3           Fe  tau(   3) = (   0.0000000   0.0000000   0.3333333  )
         4           Fe  tau(   4) = (   0.0000000   0.0000000   0.6666667  )
         5           Fe  tau(   5) = (   0.3333333   0.0000000   0.0000000  )
         6           Fe  tau(   6) = (   0.6666667   0.0000000   0.0000000  )
         7           Fe  tau(   7) = (   0.0000000   0.3333333   0.0000000  )
         8           Fe  tau(   8) = (   0.0000000   0.6666667   0.0000000  )
         9           Fe  tau(   9) = (   0.1666670   0.1666670   0.5000000  )
        10           Fe  tau(  10) = (   0.1666670   0.1666670   0.8333330  )
        11           Fe  tau(  11) = (   0.5000000   0.1666670   0.1666670  )
        12           Fe  tau(  12) = (   0.8333330   0.1666670   0.1666670  )
        13           Fe  tau(  13) = (   0.1666670   0.5000000   0.1666670  )
        14           Fe  tau(  14) = (   0.1666670   0.8333330   0.1666670  )
        15           Fe  tau(  15) = (   0.0000000   0.3333333   0.3333333  )
        16           Fe  tau(  16) = (   0.0000000   0.6666667   0.6666667  )
        17           Fe  tau(  17) = (   0.0000000   0.6666667   0.3333333  )
        18           Fe  tau(  18) = (   0.0000000   0.3333333   0.6666667  )
        19           Fe  tau(  19) = (   0.3333333   0.0000000   0.3333333  )
        20           Fe  tau(  20) = (   0.6666667   0.0000000   0.6666667  )
        21           Fe  tau(  21) = (   0.3333333   0.0000000   0.6666667  )
        22           Fe  tau(  22) = (   0.6666667   0.0000000   0.3333333  )
        23           Fe  tau(  23) = (   0.3333333   0.3333333   0.0000000  )
        24           Fe  tau(  24) = (   0.6666667   0.6666667   0.0000000  )
        25           Fe  tau(  25) = (   0.6666667   0.3333333   0.0000000  )
        26           Fe  tau(  26) = (   0.3333333   0.6666667   0.0000000  )
        27           Fe  tau(  27) = (   0.1666670   0.8333330   0.8333330  )
        28           Fe  tau(  28) = (   0.1666670   0.8333330   0.5000000  )
        29           Fe  tau(  29) = (   0.1666670   0.5000000   0.8333330  )
        30           Fe  tau(  30) = (   0.8333330   0.1666670   0.8333330  )
        31           Fe  tau(  31) = (   0.5000000   0.1666670   0.8333330  )
        32           Fe  tau(  32) = (   0.8333330   0.1666670   0.5000000  )
        33           Fe  tau(  33) = (   0.8333330   0.8333330   0.1666670  )
        34           Fe  tau(  34) = (   0.8333330   0.5000000   0.1666670  )
        35           Fe  tau(  35) = (   0.5000000   0.8333330   0.1666670  )
        36           Fe  tau(  36) = (   0.3333333   0.3333333   0.3333333  )
        37           Fe  tau(  37) = (   0.6666667   0.6666667   0.6666667  )
        38           Fe  tau(  38) = (   0.6666667   0.6666667   0.3333333  )
        39           Fe  tau(  39) = (   0.3333333   0.3333333   0.6666667  )
        40           Fe  tau(  40) = (   0.6666667   0.3333333   0.6666667  )
        41           Fe  tau(  41) = (   0.3333333   0.6666667   0.3333333  )
        42           Fe  tau(  42) = (   0.3333333   0.6666667   0.6666667  )
        43           Fe  tau(  43) = (   0.6666667   0.3333333   0.3333333  )
        44           Fe  tau(  44) = (   0.5000000   0.5000000   0.5000000  )
        45           Fe  tau(  45) = (   0.8333330   0.8333330   0.8333330  )
        46           Fe  tau(  46) = (   0.8333330   0.8333330   0.5000000  )
        47           Fe  tau(  47) = (   0.8333330   0.5000000   0.8333330  )
        48           Fe  tau(  48) = (   0.5000000   0.8333330   0.8333330  )
        49           Si  tau(  49) = (   0.1666670   0.5000000   0.5000000  )
        50           Si  tau(  50) = (   0.5000000   0.1666670   0.5000000  )
        51           Si  tau(  51) = (   0.5000000   0.5000000   0.1666670  )
        52           Si  tau(  52) = (   0.5000000   0.5000000   0.8333330  )
        53           Si  tau(  53) = (   0.5000000   0.8333330   0.5000000  )
        54           Si  tau(  54) = (   0.8333330   0.5000000   0.5000000  )

     number of k points=    10  Marzari-Vanderbilt smearing, width (Ry)=  0.0050
                       cart. coord. in units 2pi/alat
        k(    1) = (   0.0000000   0.0000000   0.0000000), wk =   0.0080000
        k(    2) = (   0.0000000   0.0000000   0.2000000), wk =   0.0480000
        k(    3) = (   0.0000000   0.0000000   0.4000000), wk =   0.0480000
        k(    4) = (   0.0000000   0.2000000   0.2000000), wk =   0.0960000
        k(    5) = (   0.0000000   0.2000000   0.4000000), wk =   0.1920000
        k(    6) = (   0.0000000   0.4000000   0.4000000), wk =   0.0960000
        k(    7) = (   0.2000000   0.2000000   0.2000000), wk =   0.0640000
        k(    8) = (   0.2000000   0.2000000   0.4000000), wk =   0.1920000
        k(    9) = (   0.2000000   0.4000000   0.4000000), wk =   0.1920000
        k(   10) = (   0.4000000   0.4000000   0.4000000), wk =   0.0640000

     Check: negative core charge=   -0.000080
     Generating pointlists ...
     new r_m :   0.1191 (alat units)  1.9264 (a.u.) for type    1
     new r_m :   0.1191 (alat units)  1.9264 (a.u.) for type    2

     Initial potential from superposition of free atoms

     starting charge  791.97560, renormalised to  792.00000
     Starting wfcs are  648 randomized atomic wfcs
     Checking if some PAW data can be deallocated...

     Self-consistent Calculation

     iteration #  1     ecut=    65.00 Ry     beta= 0.70
     Davidson diagonalization with overlap
     ethr =  1.00E-02,  avg # of iterations =  2.6

     negative rho (up, down):  0.000E+00 8.071E-03

     total energy              =  -15842.40023126 Ry
     estimated scf accuracy    <     201.22403726 Ry

     total magnetization       =   158.00 Bohr mag/cell
     absolute magnetization    =   209.79 Bohr mag/cell

[...]

     iteration # 20     ecut=    65.00 Ry     beta= 0.70
     Davidson diagonalization with overlap
     c_bands:  1 eigenvalues not converged
     ethr =  1.30E-05,  avg # of iterations = 12.2

[...]

     iteration # 26     ecut=    65.00 Ry     beta= 0.70
     Davidson diagonalization with overlap
     c_bands:  1 eigenvalues not converged
     ethr =  1.09E-06,  avg # of iterations =  5.0

[...]

     total energy              =  -15873.76793573 Ry
     estimated scf accuracy    <       0.00000001 Ry

[...]

     iteration # 52     ecut=    65.00 Ry     beta= 0.70
     Davidson diagonalization with overlap
     ethr =  1.72E-12,  avg # of iterations =  1.4

[...]

     Magnetic moment per site  (integrated on atomic sphere of radius R)
     atom   1 (R=0.119)  charge= 14.4126  magn=  2.3897
     atom   2 (R=0.119)  charge= 14.4066  magn=  2.4616
     atom   3 (R=0.119)  charge= 14.4060  magn=  2.3743
     atom   4 (R=0.119)  charge= 14.4060  magn=  2.3743
     atom   5 (R=0.119)  charge= 14.4060  magn=  2.3743
     atom   6 (R=0.119)  charge= 14.4060  magn=  2.3743
     atom   7 (R=0.119)  charge= 14.4060  magn=  2.3743
     atom   8 (R=0.119)  charge= 14.4060  magn=  2.3743
     atom   9 (R=0.119)  charge= 14.4118  magn=  2.3707
     atom  10 (R=0.119)  charge= 14.4066  magn=  2.4616
     atom  11 (R=0.119)  charge= 14.4118  magn=  2.3707
     atom  12 (R=0.119)  charge= 14.4066  magn=  2.4616
     atom  13 (R=0.119)  charge= 14.4118  magn=  2.3707
     atom  14 (R=0.119)  charge= 14.4066  magn=  2.4616
[...]
     atom  19 (R=0.119)  charge= 14.4489  magn=  2.0481
     atom  20 (R=0.119)  charge= 14.4489  magn=  2.0481
     atom  21 (R=0.119)  charge= 14.4489  magn=  2.0481
     atom  22 (R=0.119)  charge= 14.4489  magn=  2.0481
     atom  23 (R=0.119)  charge= 14.4489  magn=  2.0481
     atom  24 (R=0.119)  charge= 14.4489  magn=  2.0481
     atom  25 (R=0.119)  charge= 14.4489  magn=  2.0481
     atom  26 (R=0.119)  charge= 14.4489  magn=  2.0481
     atom  27 (R=0.119)  charge= 14.4066  magn=  2.4616
     atom  28 (R=0.119)  charge= 14.4118  magn=  2.3707
     atom  29 (R=0.119)  charge= 14.4118  magn=  2.3707
     atom  30 (R=0.119)  charge= 14.4066  magn=  2.4616
     atom  31 (R=0.119)  charge= 14.4118  magn=  2.3707
     atom  32 (R=0.119)  charge= 14.4118  magn=  2.3707
     atom  33 (R=0.119)  charge= 14.4066  magn=  2.4616
     atom  34 (R=0.119)  charge= 14.4118  magn=  2.3707
     atom  35 (R=0.119)  charge= 14.4118  magn=  2.3707
     atom  36 (R=0.119)  charge= 14.4748  magn=  1.7558
     atom  37 (R=0.119)  charge= 14.4748  magn=  1.7558
     atom  38 (R=0.119)  charge= 14.4748  magn=  1.7558
     atom  39 (R=0.119)  charge= 14.4748  magn=  1.7558
     atom  40 (R=0.119)  charge= 14.4748  magn=  1.7558
     atom  41 (R=0.119)  charge= 14.4748  magn=  1.7558
     atom  42 (R=0.119)  charge= 14.4748  magn=  1.7558
     atom  43 (R=0.119)  charge= 14.4748  magn=  1.7558
     atom  44 (R=0.119)  charge= 14.4151  magn=  2.3219
     atom  45 (R=0.119)  charge= 14.4066  magn=  2.4616
     atom  46 (R=0.119)  charge= 14.4118  magn=  2.3707
     atom  47 (R=0.119)  charge= 14.4118  magn=  2.3707
     atom  48 (R=0.119)  charge= 14.4118  magn=  2.3707
     atom  49 (R=0.119)  charge=  2.0780  magn= -0.0989
     atom  50 (R=0.119)  charge=  2.0780  magn= -0.0989
     atom  51 (R=0.119)  charge=  2.0780  magn= -0.0989
     atom  52 (R=0.119)  charge=  2.0780  magn= -0.0989
     atom  53 (R=0.119)  charge=  2.0780  magn= -0.0989
     atom  54 (R=0.119)  charge=  2.0780  magn= -0.0989

     End of self-consistent calculation

 ------ SPIN UP ------------

          k = 0.0000 0.0000 0.0000 ( 37529 PWs)   bands (ev):

   -71.0425 -70.8262 -70.8205 -70.8205 -70.8116 -70.8116 -70.8116 -70.8108
   -70.8108 -70.8108 -70.8079 -70.8079 -70.8079 -70.7728 -70.7642 -70.7642
   -70.7642 -70.7473 -70.7473 -70.7410 -70.7410 -70.7410 -70.7382 -70.7319
   -70.7319 -70.7319 -70.7264 -70.6780 -70.5398 -70.5398 -70.5373 -70.5373
   -70.5373 -70.5362 -70.5362 -70.5362 -70.5354 -70.5353 -70.5353 -70.5353
   -70.3079 -70.3064 -70.3064 -70.3064 -70.3042 -70.3042 -70.3042 -70.3021
   -37.1031 -37.1031 -37.1031 -36.9752 -36.9709 -36.9709 -36.9579 -36.9579
   -36.9579 -36.9562 -36.9530 -36.9530 -36.9530 -36.9343 -36.9343 -36.9343
   -36.9179 -36.9179 -36.9152 -36.9152 -36.9152 -36.9020 -36.9020 -36.9020
   -36.9013 -36.9013 -36.9013 -36.8965 -36.8965 -36.8965 -36.8801 -36.8801
   -36.8801 -36.8700 -36.8607 -36.8607 -36.8607 -36.8531 -36.8531 -36.8531
   -36.8530 -36.8530 -36.8489 -36.8489 -36.8489 -36.8420 -36.8420 -36.8414
   -36.8369 -36.8369 -36.8369 -36.8305 -36.8305 -36.8305 -36.7843 -36.7843
   -36.7843 -36.7773 -36.7773 -36.7773 -36.7662 -36.7565 -36.7565 -36.7363
   -36.7363 -36.7363 -36.7208 -36.7140 -36.7140 -36.6987 -36.6987 -36.6987
   -36.6975 -36.6975 -36.6975 -36.6956 -36.6956 -36.6956 -36.6892 -36.6892
   -36.6892 -36.6559 -36.6559 -36.6559 -36.5933 -36.5841 -36.5841 -36.5841
   -36.5759 -36.5759 -36.5759 -36.5751 -36.5751 -36.5717 -36.5717 -36.5624
   -36.5624 -36.5624 -36.5609 -36.5609 -36.5609 -36.5597 -36.5597 -36.5597
   -36.5583 -36.5552 -36.5552 -36.5407 -36.5407 -36.5407 -36.5360 -36.5360
   -36.5360 -36.5267 -36.5267 -36.5267 -36.5183 -36.5183 -36.5183 -36.5054
   -36.3700 -36.3700 -36.3669 -36.3669 -36.3669 -36.3648 -36.3648 -36.3648
   -36.3631 -36.3589 -36.3589 -36.3589 -36.3447 -36.3447 -36.3447 -36.3424
   -36.3424 -36.3305 -36.3305 -36.3305 -36.3278 -36.3278 -36.3278 -36.3252
     6.6246   7.6467   7.6467   8.6999   8.6999   8.6999  10.0824  10.8944
    10.9511  10.9511  10.9511  11.5596  11.5596  11.6814  11.6814  11.6814
    11.7921  11.7921  11.7921  12.2497  12.2497  12.4018  12.4018  12.4018
    12.5269  12.6994  12.6994  12.7989  12.7989  12.7989  13.0059  13.0059
    13.0059  13.0128  13.0128  13.0128  13.0572  13.1674  13.1674  13.1674
    13.1787  13.1787  13.2665  13.2665  13.2665  13.2927  13.2927  13.2927
    13.5476  13.5476  13.5476  13.5627  13.5627  13.6175  13.6469  13.6795
    13.7009  13.7478  13.7478  13.7478  13.7816  13.7816  13.7816  13.9055
    13.9055  13.9055  13.9279  13.9279  14.0303  14.0560  14.0560  14.0618
    14.0618  14.0618  14.0829  14.0829  14.0829  14.0945  14.0945  14.0951
    14.0951  14.0951  14.1155  14.1155  14.1155  14.2484  14.2596  14.2596
    14.2596  14.2913  14.2913  14.2913  14.3040  14.3040  14.3407  14.3407
    14.3407  14.3556  14.3556  14.3556  14.4098  14.4098  14.4098  14.5266
    14.5266  14.5266  14.5880  14.5880  14.5880  14.5899  14.5899  14.6662
    14.6662  14.7419  14.7419  14.7419  14.8633  14.8633  14.8633  14.8866
    14.8866  14.8866  14.9007  14.9591  14.9591  14.9591  14.9962  15.0407
    15.0407  15.0407  15.0900  15.0900  15.0900  15.1441  15.1441  15.1714
    15.1714  15.1714  15.1819  15.1819  15.1819  15.2131  15.2131  15.3684
    15.4238  15.4238  15.4238  15.4983  15.4983  15.4983  15.5073  15.5073
    15.5073  15.5570  15.5570  15.5932  15.6160  15.6160  15.6160  15.6319
    15.6319  15.6319  15.8163  15.8163  15.9001  15.9001  15.9001  15.9192
    15.9192  15.9192  15.9270  15.9943  15.9943  16.0203  16.0292  16.0292
    16.0292  16.0842  16.0842  16.0842  16.1344  16.1344  16.1344  16.1708
    16.1708  16.1862  16.1862  16.1862  16.2122  16.2122  16.2779  16.2779
    16.2779  16.2911  16.2911  16.2911  16.3018  16.3018  16.3018  16.3055
    16.3055  16.3055  16.3541  16.3589  16.3589  16.3589  16.3784  16.3784
    16.3784  16.4077  16.4077  16.4077  16.4217  16.4217  16.4237  16.4237
    16.4387  16.4387  16.4387  16.4634  16.4634  16.5288  16.5288  16.5288
    16.5966  16.5966  16.5966  16.6057  16.6057  16.6057  16.6181  16.6181
    16.6181  16.7087  16.7087  16.7087  16.7895  16.7895  16.8889  16.8889
    16.8889  16.9046  16.9046  16.9472  17.1427  17.1427  17.1427  17.2651
    17.2651  17.2651  17.2771  17.2771  17.2919  17.2919  17.2919  17.5203
    17.5203  17.5203  17.6470  18.0628  18.0628  18.1128  18.1128  18.1128
    18.3562  18.4803  18.6712  18.6712  18.6712  18.6776  18.6776  18.6776
    19.1352  19.1352  19.1352  19.2094  19.2094  19.2094  19.4525  19.6267
    19.6267  19.6284  20.0299

[...]

 ------ SPIN DOWN ----------

[...]

          k = 0.4000 0.4000 0.4000 ( 37494 PWs)   bands (ev):

   -68.3155 -68.2445 -68.2445 -68.2445 -68.2412 -68.2412 -68.2412 -68.2390
   -68.2379 -68.1331 -68.1321 -68.1321 -68.1298 -68.1298 -68.1296 -68.1246
   -68.1246 -68.1246 -68.1231 -68.1217 -68.1217 -68.0141 -68.0141 -68.0132
   -68.0082 -68.0079 -68.0079 -68.0058 -68.0058 -68.0041 -68.0028 -68.0028
   -68.0026 -67.9521 -67.9450 -67.9450 -67.9415 -67.9410 -67.9410 -67.8626
   -67.8278 -67.8278 -67.8278 -67.8276 -67.8276 -67.8276 -67.8256 -67.8114
   -34.5237 -34.5237 -34.5236 -34.4251 -34.4251 -34.4224 -34.4201 -34.4201
   -34.4135 -34.4131 -34.4131 -34.3974 -34.3856 -34.3856 -34.3848 -34.3713
   -34.3713 -34.3707 -34.3699 -34.3680 -34.3680 -34.3641 -34.3641 -34.3615
   -34.3493 -34.3467 -34.3467 -34.3408 -34.3408 -34.3339 -34.3235 -34.3207
   -34.3207 -34.3142 -34.3142 -34.3039 -34.3039 -34.3023 -34.2878 -34.2853
   -34.2853 -34.2853 -34.2827 -34.2827 -34.2784 -34.2784 -34.2770 -34.2729
   -34.2729 -34.2693 -34.2686 -34.2637 -34.2637 -34.2598 -34.2598 -34.2520
   -34.2468 -34.2468 -34.2459 -34.2315 -34.2262 -34.2262 -34.2080 -34.2042
   -34.2042 -34.1960 -34.1766 -34.1766 -34.1747 -34.1687 -34.1687 -34.1685
   -34.1542 -34.1542 -34.1440 -34.1293 -34.1184 -34.1184 -34.1179 -34.1141
   -34.1116 -34.1116 -34.1047 -34.1021 -34.0991 -34.0991 -34.0804 -34.0804
   -34.0765 -34.0709 -34.0709 -34.0656 -34.0656 -34.0493 -34.0493 -34.0480
   -34.0464 -34.0464 -34.0458 -34.0315 -34.0273 -34.0273 -34.0259 -34.0233
   -34.0233 -34.0200 -34.0191 -34.0191 -34.0183 -34.0097 -34.0092 -34.0092
   -34.0063 -34.0063 -33.9988 -33.9971 -33.9971 -33.9753 -33.9731 -33.9731
   -33.9244 -33.9238 -33.9238 -33.9228 -33.9189 -33.9014 -33.9014 -33.8853
   -33.8853 -33.8852 -33.8673 -33.8673 -33.8672 -33.8669 -33.8669 -33.8655
   -33.8641 -33.8641 -33.8589 -33.8589 -33.8588 -33.8346 -33.8346 -33.8345
     7.1655   7.3362   7.3362   7.8665   9.3268   9.3268  10.1849  10.3550
    10.3550  10.9795  11.8080  11.8169  11.8169  12.1900  12.3978  12.3978
    12.5800  12.7199  12.7199  12.9022  12.9779  12.9779  13.2340  13.3543
    13.3543  13.4442  13.6047  13.6047  13.6507  13.7003  13.7689  13.7689
    13.9424  14.0349  14.0349  14.1051  14.1407  14.1407  14.1780  14.1780
    14.2176  14.3576  14.4098  14.4098  14.4636  14.4636  14.5400  14.7676
    14.7676  14.7775  14.7775  14.8152  14.8385  14.8943  14.8943  14.9260
    14.9618  14.9618  15.1397  15.1397  15.2482  15.2793  15.2793  15.3103
    15.3103  15.3241  15.5491  15.5508  15.5508  15.6151  15.6151  15.6413
    15.6568  15.6848  15.6848  15.7084  15.7292  15.7292  15.7491  15.7542
    15.7542  15.7629  15.7629  15.7802  15.7802  15.7822  15.8808  15.8808
    15.9125  15.9130  15.9130  15.9168  15.9449  15.9605  15.9870  15.9870
    16.0981  16.0981  16.1501  16.1530  16.1530  16.1597  16.2476  16.2705
    16.2705  16.3012  16.3023  16.3173  16.3173  16.3443  16.3443  16.3683
    16.3827  16.3827  16.4153  16.4153  16.4289  16.4299  16.4500  16.4500
    16.4681  16.4681  16.5379  16.5564  16.5564  16.5665  16.5665  16.5841
    16.5901  16.6254  16.6254  16.6692  16.6723  16.6723  16.6889  16.6889
    16.6925  16.7245  16.7554  16.7554  16.9152  16.9152  16.9506  17.0632
    17.0632  17.0739  17.1631  17.1879  17.1879  17.1895  17.2152  17.2152
    17.2580  17.3078  17.3078  17.4597  17.5536  17.5536  17.5566  17.6576
    17.6576  17.6766  18.0436  18.1096  18.1281  18.1281  18.2387  18.2394
    18.2394  18.2991  18.3286  18.3286  18.3311  18.3349  18.3349  18.3631
    18.3631  18.4003  18.4003  18.4108  18.4414  18.4667  18.5197  18.5197
    18.5730  18.5730  18.5785  18.5915  18.5915  18.6822  18.7121  18.7121
    18.7490  18.7750  18.7750  18.7891  18.8173  18.8237  18.8237  18.8493
    18.8493  18.8635  18.8635  18.8641  18.8743  18.9001  18.9001  18.9294
    18.9294  18.9479  18.9525  18.9525  18.9822  18.9870  19.0015  19.0015
    19.0303  19.0303  19.0457  19.0457  19.0630  19.0630  19.0722  19.0842
    19.0892  19.0892  19.1014  19.1014  19.1017  19.1120  19.1120  19.1123
    19.1292  19.1292  19.1625  19.1830  19.1830  19.1964  19.2095  19.2208
    19.2208  19.2741  19.2741  19.2754  19.2805  19.2805  19.3457  19.3708
    19.3708  19.4313  19.4313  19.5023  19.5023  19.5181  19.5681  19.5681
    19.5987  19.6199  19.6199  19.6472  19.7661  19.7973  19.8071  19.8071
    19.8546  19.8546  19.9686  19.9686  20.0239  20.1716  20.2828  20.2828
    20.3227  20.4254  20.4254  20.4417  20.5079  20.5079  20.7136  20.9377
    20.9377  21.0262  21.0262

     the Fermi energy is    17.3263 ev

!    total energy              =  -15873.76793572 Ry
     estimated scf accuracy    <          6.2E-09 Ry
     smearing contrib. (-TS)   =       0.00176991 Ry
     internal energy E=F+TS    =  -15873.76970564 Ry

     The total energy is F=E-TS. E is the sum of the following terms:
     one-electron contribution =   -6090.78294563 Ry
     hartree contribution      =    3547.50500457 Ry
     xc contribution           =   -1709.47988002 Ry
     ewald contribution        =   -7965.80787138 Ry
     one-center paw contrib.   =   -3655.20401318 Ry

     total magnetization       =   102.78 Bohr mag/cell
     absolute magnetization    =   110.07 Bohr mag/cell

     convergence has been achieved in  52 iterations

     negative rho (up, down):  0.000E+00 5.162E-03

     Forces acting on atoms (cartesian axes, Ry/au):

     atom    1 type  2   force =     0.00000000    0.00000000    0.00000000
     atom    2 type  2   force =     0.00402023    0.00402023    0.00402023
     atom    3 type  2   force =     0.00000000    0.00000000    0.00376026
     atom    4 type  2   force =     0.00000000    0.00000000   -0.00376026
     atom    5 type  2   force =     0.00376026    0.00000000    0.00000000
     atom    6 type  2   force =    -0.00376026    0.00000000    0.00000000
     atom    7 type  2   force =     0.00000000    0.00376026    0.00000000
     atom    8 type  2   force =     0.00000000   -0.00376026    0.00000000
     atom    9 type  2   force =     0.00793290    0.00793290    0.00000000
     atom   10 type  2   force =     0.00402023    0.00402023   -0.00402023
     atom   11 type  2   force =    -0.00000000    0.00793290    0.00793290
     atom   12 type  2   force =    -0.00402023    0.00402023    0.00402023
     atom   13 type  2   force =     0.00793290   -0.00000000    0.00793290
     atom   14 type  2   force =     0.00402023   -0.00402023    0.00402023
     atom   15 type  2   force =     0.00000000    0.00080525    0.00080525
     atom   16 type  2   force =     0.00000000   -0.00080525   -0.00080525
     atom   17 type  2   force =     0.00000000   -0.00080525    0.00080525
     atom   18 type  2   force =     0.00000000    0.00080525   -0.00080525
     atom   19 type  2   force =     0.00080525   -0.00000000    0.00080525
     atom   20 type  2   force =    -0.00080525   -0.00000000   -0.00080525
     atom   21 type  2   force =     0.00080525   -0.00000000   -0.00080525
     atom   22 type  2   force =    -0.00080525   -0.00000000    0.00080525
     atom   23 type  2   force =     0.00080525    0.00080525   -0.00000000
     atom   24 type  2   force =    -0.00080525   -0.00080525   -0.00000000
     atom   25 type  2   force =    -0.00080525    0.00080525    0.00000000
     atom   26 type  2   force =     0.00080525   -0.00080525    0.00000000
     atom   27 type  2   force =     0.00402023   -0.00402023   -0.00402023
     atom   28 type  2   force =     0.00793290   -0.00793290    0.00000000
     atom   29 type  2   force =     0.00793290   -0.00000000   -0.00793290
     atom   30 type  2   force =    -0.00402023    0.00402023   -0.00402023
     atom   31 type  2   force =    -0.00000000    0.00793290   -0.00793290
     atom   32 type  2   force =    -0.00793290    0.00793290    0.00000000
     atom   33 type  2   force =    -0.00402023   -0.00402023    0.00402023
     atom   34 type  2   force =    -0.00793290    0.00000000    0.00793290
     atom   35 type  2   force =    -0.00000000   -0.00793290    0.00793290
     atom   36 type  2   force =     0.00015473    0.00015473    0.00015473
     atom   37 type  2   force =    -0.00015473   -0.00015473   -0.00015473
     atom   38 type  2   force =    -0.00015473   -0.00015473    0.00015473
     atom   39 type  2   force =     0.00015473    0.00015473   -0.00015473
     atom   40 type  2   force =    -0.00015473    0.00015473   -0.00015473
     atom   41 type  2   force =     0.00015473   -0.00015473    0.00015473
     atom   42 type  2   force =     0.00015473   -0.00015473   -0.00015473
     atom   43 type  2   force =    -0.00015473    0.00015473    0.00015473
     atom   44 type  2   force =     0.00000000    0.00000000    0.00000000
     atom   45 type  2   force =    -0.00402023   -0.00402023   -0.00402023
     atom   46 type  2   force =    -0.00793290   -0.00793290    0.00000000
     atom   47 type  2   force =    -0.00793290   -0.00000000   -0.00793290
     atom   48 type  2   force =     0.00000000   -0.00793290   -0.00793290
     atom   49 type  1   force =     0.02416010    0.00000000    0.00000000
     atom   50 type  1   force =     0.00000000    0.02416010   -0.00000000
     atom   51 type  1   force =     0.00000000    0.00000000    0.02416010
     atom   52 type  1   force =     0.00000000    0.00000000   -0.02416010
     atom   53 type  1   force =     0.00000000   -0.02416010   -0.00000000
     atom   54 type  1   force =    -0.02416010    0.00000000    0.00000000

     Total force =     0.074172     Total SCF correction =     0.000401

     Computing stress (Cartesian axis) and pressure

     negative rho (up, down):  0.000E+00 5.162E-03
          total   stress  (Ry/bohr**3)                   (kbar)     P=      -70.31
  -0.00047792   0.00000000   0.00000000          -70.31        0.00        0.00
   0.00000000  -0.00047792   0.00000000            0.00      -70.31        0.00
   0.00000000   0.00000000  -0.00047792            0.00        0.00      -70.31

     Writing output data file ./cryst.save/

     General routines

     Parallel routines

   This run was terminated on:  22:39: 8   3Dec2022

   JOB DONE.