     Program PWSCF v.7.1 starts on 26Nov2022 at  6:18:26

     Waiting for input...
     Reading input from standard input

     Current dimensions of program PWSCF are:
     Max number of different atomic species (ntypx) = 10
     Max number of k-points (npk) =  40000
     Max angular momentum in pseudopotentials (lmaxx) =  4
     file Fe.pbe-spn-kjpaw_psl.0.2.1.UPF: wavefunction(s)  3D renormalized

     IMPORTANT: XC functional enforced from input :
     Exchange-correlation= PBE
                           (   1   4   3   4   0   0   0)
     Any further DFT definition will be discarded
     Please, verify this is what you really want

     Found identity + (  0.5000  0.5000  0.5000) symmetry
     This is a supercell, fractional translations are disabled
     Message from routine setup:
     using ibrav=0 with symmetry is DISCOURAGED, use correct ibrav instead

     R & G space division:  proc/nbgrp/npool/nimage =       8
     Subspace diagonalization in iterative solution of the eigenvalue problem:
     a serial algorithm will be used

     Using Slab Decomposition

     bravais-lattice index     =            0
     lattice parameter (alat)  =      10.6864  a.u.
     unit-cell volume          =    1220.3782 (a.u.)^3
     number of atoms/cell      =           16
     number of atomic types    =            2
     number of electrons       =       232.00
     number of Kohn-Sham states=          139
     kinetic-energy cutoff     =      54.0000  Ry
     charge density cutoff     =     432.0000  Ry
     scf convergence threshold =      1.0E-08
     mixing beta               =       0.7000
     number of iterations used =            8  plain     mixing
     energy convergence thresh.=      1.0E-04
     force convergence thresh. =      1.0E-03
     press convergence thresh. =      5.0E-01
     Exchange-correlation= PBE
                           (   1   4   3   4   0   0   0)
     nstep                     =           50

     celldm(1)=  10.686401  celldm(2)=   0.000000  celldm(3)=   0.000000
     celldm(4)=   0.000000  celldm(5)=   0.000000  celldm(6)=   0.000000

     crystal axes: (cart. coord. in units of alat)
               a(1) = (   1.000000   0.000000   0.000000 )
               a(2) = (   0.000000   1.000000   0.000000 )
               a(3) = (   0.000000   0.000000   1.000000 )

     reciprocal axes: (cart. coord. in units 2 pi/alat)
               b(1) = (  1.000000  0.000000  0.000000 )
               b(2) = (  0.000000  1.000000  0.000000 )
               b(3) = (  0.000000  0.000000  1.000000 )

     PseudoPot. # 1 for Si read from file:
     ./Si.pbe-n-rrkjus_psl.1.0.0.UPF
     MD5 check sum: 0b0bb1205258b0d07b9f9672cf965d36
     Pseudo is Ultrasoft + core correction, Zval =  4.0
     Generated using "atomic" code by A. Dal Corso  v.5.1
     Using radial grid of 1141 points,  6 beta functions with:
                l(1) =   0
                l(2) =   0
                l(3) =   1
                l(4) =   1
                l(5) =   2
                l(6) =   2
     Q(r) pseudized with 0 coefficients

     PseudoPot. # 2 for Fe read from file:
     ./Fe.pbe-spn-kjpaw_psl.0.2.1.UPF
     MD5 check sum: e86618425769142926afa95317d90200
     Pseudo is Projector augmented-wave + core cor, Zval = 16.0
     Generated using "atomic" code by A. Dal Corso  v.5.0.99 svn rev. 10869
     Shape of augmentation charge: PSQ
     Using radial grid of 1191 points,  6 beta functions with:
                l(1) =   0
                l(2) =   0
                l(3) =   1
                l(4) =   1
                l(5) =   2
                l(6) =   2
     Q(r) pseudized with 0 coefficients

     atomic species   valence    mass     pseudopotential
        Si             4.00    28.08500     Si( 1.00)
        Fe            16.00    55.84500     Fe( 1.00)

     Starting magnetic structure
     atomic species   magnetization
        Si           1.000
        Fe           1.000

     48 Sym. Ops., with inversion, found

   Cartesian axes

     site n.     atom                  positions (alat units)
         1           Si  tau(   1) = (   0.5000000   0.5000000   0.5000000  )
         2           Fe  tau(   2) = (   0.5000000   1.0000000   1.0000000  )
         3           Fe  tau(   3) = (   1.0000000   0.5000000   1.0000000  )
         4           Fe  tau(   4) = (   1.0000000   1.0000000   0.5000000  )
         5           Fe  tau(   5) = (   0.2500000   0.2500000   0.2500000  )
         6           Fe  tau(   6) = (   0.2500000   0.7500000   0.7500000  )
         7           Fe  tau(   7) = (   0.7500000   0.2500000   0.7500000  )
         8           Fe  tau(   8) = (   0.7500000   0.7500000   0.2500000  )
         9           Fe  tau(   9) = (   0.7500000   0.7500000   0.7500000  )
        10           Fe  tau(  10) = (   0.7500000   0.2500000   0.2500000  )
        11           Fe  tau(  11) = (   0.2500000   0.7500000   0.2500000  )
        12           Fe  tau(  12) = (   0.2500000   0.2500000   0.7500000  )
        13           Si  tau(  13) = (   0.0000000   0.0000000   0.0000000  )
        14           Fe  tau(  14) = (   0.0000000   0.5000000   0.5000000  )
        15           Fe  tau(  15) = (   0.5000000   0.0000000   0.5000000  )
        16           Fe  tau(  16) = (   0.5000000   0.5000000   0.0000000  )

     number of k points=    10  Marzari-Vanderbilt smearing, width (Ry)=  0.0050
                       cart. coord. in units 2pi/alat
        k(    1) = (   0.0000000   0.0000000   0.0000000), wk =   0.0080000
        k(    2) = (   0.0000000   0.0000000   0.2000000), wk =   0.0480000
        k(    3) = (   0.0000000   0.0000000   0.4000000), wk =   0.0480000
        k(    4) = (   0.0000000   0.2000000   0.2000000), wk =   0.0960000
        k(    5) = (   0.0000000   0.2000000   0.4000000), wk =   0.1920000
        k(    6) = (   0.0000000   0.4000000   0.4000000), wk =   0.0960000
        k(    7) = (   0.2000000   0.2000000   0.2000000), wk =   0.0640000
        k(    8) = (   0.2000000   0.2000000   0.4000000), wk =   0.1920000
        k(    9) = (   0.2000000   0.4000000   0.4000000), wk =   0.1920000
        k(   10) = (   0.4000000   0.4000000   0.4000000), wk =   0.0640000

     Check: negative core charge=   -0.000071
     Generating pointlists ...
     new r_m :   0.1786 (alat units)  1.9088 (a.u.) for type    1
     new r_m :   0.1786 (alat units)  1.9088 (a.u.) for type    2

     Initial potential from superposition of free atoms

     starting charge     231.9927, renormalised to     232.0000
     Starting wfcs are  190 randomized atomic wfcs
     Checking if some PAW data can be deallocated...

     Self-consistent Calculation

     iteration #  1     ecut=    54.00 Ry     beta= 0.70
     Davidson diagonalization with overlap
     ethr =  1.00E-02,  avg # of iterations =  2.9

     negative rho (up, down):  0.000E+00 3.157E-03

     total energy              =   -4623.40372148 Ry
     estimated scf accuracy    <      59.03883969 Ry

     total magnetization       =    46.00 Bohr mag/cell
     absolute magnetization    =    60.79 Bohr mag/cell

[...]

     Magnetic moment per site  (integrated on atomic sphere of radius R)
     atom   1 (R=0.179)  charge=  2.0499  magn= -0.1092
     atom   2 (R=0.179)  charge= 14.3795  magn=  2.3277
     atom   3 (R=0.179)  charge= 14.3795  magn=  2.3277
     atom   4 (R=0.179)  charge= 14.3795  magn=  2.3277
     atom   5 (R=0.179)  charge= 14.4356  magn=  1.7291
     atom   6 (R=0.179)  charge= 14.4356  magn=  1.7291
     atom   7 (R=0.179)  charge= 14.4356  magn=  1.7291
     atom   8 (R=0.179)  charge= 14.4356  magn=  1.7291
     atom   9 (R=0.179)  charge= 14.4356  magn=  1.7291
     atom  10 (R=0.179)  charge= 14.4356  magn=  1.7291
     atom  11 (R=0.179)  charge= 14.4356  magn=  1.7291
     atom  12 (R=0.179)  charge= 14.4356  magn=  1.7291
     atom  13 (R=0.179)  charge=  2.0499  magn= -0.1092
     atom  14 (R=0.179)  charge= 14.3795  magn=  2.3277
     atom  15 (R=0.179)  charge= 14.3795  magn=  2.3277
     atom  16 (R=0.179)  charge= 14.3795  magn=  2.3277

     End of self-consistent calculation

 ------ SPIN UP ------------

          k = 0.0000 0.0000 0.0000 (  8217 PWs)   bands (ev):

   -70.4149 -70.4059 -70.4059 -70.4005 -70.4005 -70.3986 -69.8168 -69.8168
   -69.8168 -69.8158 -69.8113 -69.8113 -69.8113 -69.8067 -36.5954 -36.5954
   -36.5954 -36.5549 -36.5549 -36.5549 -36.4968 -36.4968 -36.4968 -36.4200
   -36.4200 -36.4200 -36.3752 -36.3752 -36.3752 -36.3557 -36.3557 -36.3557
   -35.9324 -35.9324 -35.9087 -35.9087 -35.9087 -35.8728 -35.8597 -35.8597
   -35.8597 -35.8557 -35.8557 -35.8557 -35.8537 -35.8537 -35.8460 -35.8460
   -35.8460 -35.8103 -35.8103 -35.8103 -35.8079 -35.8079 -35.8079 -35.7903
     7.2754   9.2693  11.6931  12.0365  12.0365  12.0365  12.9202  12.9202
    13.0540  13.0540  13.0540  13.2340  13.2340  13.4104  13.4104  14.4333
    14.4333  14.4333  14.4381  14.4381  14.4381  14.6779  14.7151  14.7151
    14.7151  15.0109  15.0109  15.0109  15.0304  15.0304  15.0304  15.2978
    15.2978  15.4287  15.4287  15.4287  15.7821  15.7821  15.7821  16.0519
    16.0519  16.0519  16.2203  16.2203  16.2203  16.2485  16.2485  16.2485
    16.3219  16.3219  16.3219  16.3750  16.5349  16.6789  16.6789  16.7889
    16.8202  16.8202  16.9767  17.0426  17.0426  17.2634  17.2634  17.2634
    17.2666  17.2666  17.2666  17.3079  17.3079  17.3688  17.3688  18.0609
    18.0609  18.0609  18.1972  18.1972  18.1972  18.2585  18.2585  18.2585
    18.3526  18.3526  18.3526

[...]

 ------ SPIN DOWN ----------

[...]

     the Fermi energy is    17.9087 ev

!    total energy              =   -4632.67251008 Ry
     estimated scf accuracy    <          1.1E-09 Ry
     smearing contrib. (-TS)   =       0.00063899 Ry
     internal energy E=F+TS    =   -4632.67314907 Ry

     The total energy is F=E-TS. E is the sum of the following terms:
     one-electron contribution =   -1705.52415804 Ry
     hartree contribution      =    1003.95349490 Ry
     xc contribution           =    -500.22423188 Ry
     ewald contribution        =   -2364.76588500 Ry
     one-center paw contrib.   =   -1066.11236904 Ry

[...]

     convergence has been achieved in  22 iterations

[...]

     Forces acting on atoms (cartesian axes, Ry/au):

     atom    1 type  1   force =     0.00000000    0.00000000    0.00000000
     atom    2 type  2   force =     0.00000000    0.00000000    0.00000000
     atom    3 type  2   force =     0.00000000    0.00000000    0.00000000
     atom    4 type  2   force =     0.00000000    0.00000000    0.00000000
     atom    5 type  2   force =    -0.00000501   -0.00000501   -0.00000501
     atom    6 type  2   force =    -0.00000501    0.00000501    0.00000501
     atom    7 type  2   force =     0.00000501   -0.00000501    0.00000501
     atom    8 type  2   force =     0.00000501    0.00000501   -0.00000501
     atom    9 type  2   force =     0.00000501    0.00000501    0.00000501
     atom   10 type  2   force =     0.00000501   -0.00000501   -0.00000501
     atom   11 type  2   force =    -0.00000501    0.00000501   -0.00000501
     atom   12 type  2   force =    -0.00000501   -0.00000501    0.00000501
[...]
Fe            1.0000000000        0.5000000000        1.0000000000
Fe            1.0000000000        1.0000000000        0.5000000000
Fe            0.2499995313        0.2499995313        0.2499995313
Fe            0.2499995313        0.7500004687        0.7500004687
Fe            0.7500004687        0.2499995313        0.7500004687
Fe            0.7500004687        0.7500004687        0.2499995313
Fe            0.7500004687        0.7500004687        0.7500004687
Fe            0.7500004687        0.2499995313        0.2499995313
Fe            0.2499995313        0.7500004687        0.2499995313
Fe            0.2499995313        0.2499995313        0.7500004687
Si            0.0000000000        0.0000000000        0.0000000000
Fe            0.0000000000        0.5000000000        0.5000000000
Fe            0.5000000000        0.0000000000        0.5000000000
Fe            0.5000000000        0.5000000000        0.0000000000

     Writing config-only to output data dir ./file.save/
     NEW-OLD atomic charge density approx. for the potential

     Check: negative core charge=   -0.000075

     negative rho (up, down):  0.000E+00 1.306E-03
     extrapolated charge  227.32574, renormalised to  232.00000
     Generating pointlists ...

[...]

     iteration #  1     ecut=    54.00 Ry     beta= 0.70
     Davidson diagonalization with overlap
     c_bands:  1 eigenvalues not converged
     c_bands:  1 eigenvalues not converged
     ethr =  1.00E-06,  avg # of iterations = 14.6

[...]

     Energy error            =      2.8E-03 Ry
     Gradient error          =      7.4E-06 Ry/Bohr
     Cell gradient error     =      5.3E+00 kbar

     number of scf cycles    =   2
     number of bfgs steps    =   1

     enthalpy           old  =   -4632.6725100769 Ry
     enthalpy           new  =   -4632.6753369326 Ry

     CASE: enthalpy          _new < enthalpy          _old

     new trust radius        =       0.0054854603 bohr
     new conv_thr            =            1.0E-10 Ry

     new unit-cell volume =   1199.12342 a.u.^3 (   177.69176 Ang^3 )
     density =      7.83116 g/cm^3

[...]

ATOMIC_POSITIONS (crystal)
Si            0.5000000000        0.5000000000        0.5000000000
Fe            0.5000000000        1.0000000000        1.0000000000
Fe            1.0000000000        0.5000000000        1.0000000000
Fe            1.0000000000        1.0000000000        0.5000000000
Fe            0.2500001359        0.2500001359        0.2500001359
Fe            0.2500001359        0.7499998641        0.7499998641
Fe            0.7499998641        0.2500001359        0.7499998641
Fe            0.7499998641        0.7499998641        0.2500001359
Fe            0.7499998641        0.7499998641        0.7499998641
Fe            0.7499998641        0.2500001359        0.2500001359
Fe            0.2500001359        0.7499998641        0.2500001359
Fe            0.2500001359        0.2500001359        0.7499998641
Si            0.0000000000        0.0000000000        0.0000000000
Fe            0.0000000000        0.5000000000        0.5000000000
Fe            0.5000000000        0.0000000000        0.5000000000
Fe            0.5000000000        0.5000000000        0.0000000000

     Writing config-only to output data dir ./file.save/
     NEW-OLD atomic charge density approx. for the potential

     Check: negative core charge=   -0.000075

     negative rho (up, down):  0.000E+00 1.154E-03
     extrapolated charge  232.55103, renormalised to  232.00000
     Generating pointlists ...

[...]

     Energy error            =      4.8E-05 Ry
     Gradient error          =      2.0E-06 Ry/Bohr
     Cell gradient error     =      2.3E-01 kbar

     bfgs converged in   3 scf cycles and   2 bfgs steps
     (criteria: energy <  1.0E-04 Ry, force <  1.0E-03 Ry/Bohr, cell <  5.0E-01 kbar)

     End of BFGS Geometry Optimization

     Final enthalpy           =   -4632.6753844571 Ry

     File ./file.bfgs deleted, as requested
Begin final coordinates
     new unit-cell volume =   1199.12342 a.u.^3 (   177.69176 Ang^3 )
     density =      7.83116 g/cm^3

CELL_PARAMETERS (alat= 10.68640123)
   0.994160459   0.000000000   0.000000000
   0.000000000   0.994160459   0.000000000
   0.000000000   0.000000000   0.994160459

ATOMIC_POSITIONS (crystal)
Si            0.5000000000        0.5000000000        0.5000000000
Fe            0.5000000000        1.0000000000        1.0000000000
Fe            1.0000000000        0.5000000000        1.0000000000
Fe            1.0000000000        1.0000000000        0.5000000000
Fe            0.2500001359        0.2500001359        0.2500001359
Fe            0.2500001359        0.7499998641        0.7499998641
Fe            0.7499998641        0.2500001359        0.7499998641
Fe            0.7499998641        0.7499998641        0.2500001359
Fe            0.7499998641        0.7499998641        0.7499998641
Fe            0.7499998641        0.2500001359        0.2500001359
Fe            0.2500001359        0.7499998641        0.2500001359
Fe            0.2500001359        0.2500001359        0.7499998641
Si            0.0000000000        0.0000000000        0.0000000000
Fe            0.0000000000        0.5000000000        0.5000000000
Fe            0.5000000000        0.0000000000        0.5000000000
Fe            0.5000000000        0.5000000000        0.0000000000
End final coordinates

     Writing config-only to output data dir ./file.save/

     Final scf calculation at the relaxed structure.
     The G-vectors are recalculated for the final unit cell
     Results may differ from those at the preceding step.

     Using Slab Decomposition

     bravais-lattice index     =            0
     lattice parameter (alat)  =      10.6864  a.u.
     unit-cell volume          =    1199.1234 (a.u.)^3
     number of atoms/cell      =           16
     number of atomic types    =            2
     number of electrons       =       232.00
     number of Kohn-Sham states=          139
     kinetic-energy cutoff     =      54.0000  Ry
     charge density cutoff     =     432.0000  Ry
     scf convergence threshold =      1.0E-10
     mixing beta               =       0.7000
     number of iterations used =            8  plain     mixing
     press convergence thresh. =      5.0E-01
     Exchange-correlation= PBE
                           (   1   4   3   4   0   0   0)

     celldm(1)=  10.686401  celldm(2)=   0.000000  celldm(3)=   0.000000
     celldm(4)=   0.000000  celldm(5)=   0.000000  celldm(6)=   0.000000

     crystal axes: (cart. coord. in units of alat)
               a(1) = (   0.994160   0.000000   0.000000 )
               a(2) = (   0.000000   0.994160   0.000000 )
               a(3) = (   0.000000   0.000000   0.994160 )

     reciprocal axes: (cart. coord. in units 2 pi/alat)
               b(1) = (  1.005874  0.000000  0.000000 )
               b(2) = (  0.000000  1.005874  0.000000 )
               b(3) = (  0.000000  0.000000  1.005874 )

     PseudoPot. # 1 for Si read from file:
     ./Si.pbe-n-rrkjus_psl.1.0.0.UPF
     MD5 check sum: 0b0bb1205258b0d07b9f9672cf965d36
     Pseudo is Ultrasoft + core correction, Zval =  4.0
     Generated using "atomic" code by A. Dal Corso  v.5.1
     Using radial grid of 1141 points,  6 beta functions with:
                l(1) =   0
                l(2) =   0
                l(3) =   1
                l(4) =   1
                l(5) =   2
                l(6) =   2
     Q(r) pseudized with 0 coefficients

     PseudoPot. # 2 for Fe read from file:
     ./Fe.pbe-spn-kjpaw_psl.0.2.1.UPF
     MD5 check sum: e86618425769142926afa95317d90200
     Pseudo is Projector augmented-wave + core cor, Zval = 16.0
     Generated using "atomic" code by A. Dal Corso  v.5.0.99 svn rev. 10869
     Shape of augmentation charge: PSQ
     Using radial grid of 1191 points,  6 beta functions with:
                l(1) =   0
                l(2) =   0
                l(3) =   1
                l(4) =   1
                l(5) =   2
                l(6) =   2
     Q(r) pseudized with 0 coefficients

     atomic species   valence    mass     pseudopotential
        Si             4.00    28.08500     Si( 1.00)
        Fe            16.00    55.84500     Fe( 1.00)

     Starting magnetic structure
     atomic species   magnetization
        Si          -0.052
        Fe           0.135

     48 Sym. Ops., with inversion, found

   Cartesian axes

     site n.     atom                  positions (alat units)
         1           Si  tau(   1) = (   0.4970802   0.4970802   0.4970802  )
         2           Fe  tau(   2) = (   0.4970802   0.9941605   0.9941605  )
         3           Fe  tau(   3) = (   0.9941605   0.4970802   0.9941605  )
         4           Fe  tau(   4) = (   0.9941605   0.9941605   0.4970802  )
         5           Fe  tau(   5) = (   0.2485402   0.2485402   0.2485402  )
         6           Fe  tau(   6) = (   0.2485402   0.7456202   0.7456202  )
         7           Fe  tau(   7) = (   0.7456202   0.2485402   0.7456202  )
         8           Fe  tau(   8) = (   0.7456202   0.7456202   0.2485402  )
         9           Fe  tau(   9) = (   0.7456202   0.7456202   0.7456202  )
        10           Fe  tau(  10) = (   0.7456202   0.2485402   0.2485402  )
        11           Fe  tau(  11) = (   0.2485402   0.7456202   0.2485402  )
        12           Fe  tau(  12) = (   0.2485402   0.2485402   0.7456202  )
        13           Si  tau(  13) = (   0.0000000   0.0000000   0.0000000  )
        14           Fe  tau(  14) = (   0.0000000   0.4970802   0.4970802  )
        15           Fe  tau(  15) = (   0.4970802   0.0000000   0.4970802  )
        16           Fe  tau(  16) = (   0.4970802   0.4970802   0.0000000  )

     number of k points=    10  Marzari-Vanderbilt smearing, width (Ry)=  0.0050
                       cart. coord. in units 2pi/alat
        k(    1) = (   0.0000000   0.0000000   0.0000000), wk =   0.0080000
        k(    2) = (   0.0000000   0.0000000   0.2011748), wk =   0.0480000
        k(    3) = (   0.0000000   0.0000000   0.4023495), wk =   0.0480000
        k(    4) = (   0.0000000   0.2011748   0.2011748), wk =   0.0960000
        k(    5) = (   0.0000000   0.2011748   0.4023495), wk =   0.1920000
        k(    6) = (   0.0000000   0.4023495   0.4023495), wk =   0.0960000
        k(    7) = (   0.2011748   0.2011748   0.2011748), wk =   0.0640000
        k(    8) = (   0.2011748   0.2011748   0.4023495), wk =   0.1920000
        k(    9) = (   0.2011748   0.4023495   0.4023495), wk =   0.1920000
        k(   10) = (   0.4023495   0.4023495   0.4023495), wk =   0.0640000

     Check: negative core charge=   -0.000072
     Generating pointlists ...

     Initial potential from superposition of free atoms

     starting charge     231.9927, renormalised to     232.0000
     Starting wfcs are  190 randomized atomic wfcs
     Checking if some PAW data can be deallocated...

     Self-consistent Calculation

     iteration #  1     ecut=    54.00 Ry     beta= 0.70
     Davidson diagonalization with overlap
     c_bands:  1 eigenvalues not converged
     c_bands:  1 eigenvalues not converged
     ethr =  1.00E-06,  avg # of iterations = 14.8

[...]

     total energy              =   -4632.67228828 Ry
     estimated scf accuracy    <          2.2E-10 Ry

[...]

     iteration # 20     ecut=    54.00 Ry     beta= 0.70
     Davidson diagonalization with overlap
     ethr =  1.00E-13,  avg # of iterations =  1.6

[...]

     Magnetic moment per site  (integrated on atomic sphere of radius R)
     atom   1 (R=0.179)  charge=  2.0721  magn= -0.1069
     atom   2 (R=0.179)  charge= 14.3999  magn=  2.3015
     atom   3 (R=0.179)  charge= 14.3999  magn=  2.3015
     atom   4 (R=0.179)  charge= 14.3999  magn=  2.3015
     atom   5 (R=0.179)  charge= 14.4579  magn=  1.6856
     atom   6 (R=0.179)  charge= 14.4579  magn=  1.6856
     atom   7 (R=0.179)  charge= 14.4579  magn=  1.6856
     atom   8 (R=0.179)  charge= 14.4579  magn=  1.6856
     atom   9 (R=0.179)  charge= 14.4579  magn=  1.6856
     atom  10 (R=0.179)  charge= 14.4579  magn=  1.6856
     atom  11 (R=0.179)  charge= 14.4579  magn=  1.6856
     atom  12 (R=0.179)  charge= 14.4579  magn=  1.6856
     atom  13 (R=0.179)  charge=  2.0721  magn= -0.1069
     atom  14 (R=0.179)  charge= 14.3999  magn=  2.3015
     atom  15 (R=0.179)  charge= 14.3999  magn=  2.3015
     atom  16 (R=0.179)  charge= 14.3999  magn=  2.3015

     End of self-consistent calculation

 ------ SPIN UP ------------

[...]

 ------ SPIN DOWN ----------

[...]

          k = 0.4023 0.4023 0.4023 (  8030 PWs)   bands (ev):

   -67.4345 -67.4285 -67.4285 -67.4231 -67.4226 -67.4226 -67.4183 -67.4171
   -67.3037 -67.3037 -67.3034 -67.3020 -67.3020 -67.2988 -33.6678 -33.6678
   -33.6676 -33.6676 -33.6648 -33.6581 -33.6452 -33.6257 -33.6257 -33.6194
   -33.6194 -33.6025 -33.5863 -33.5863 -33.5842 -33.5822 -33.5822 -33.5592
   -33.5585 -33.5528 -33.5528 -33.5387 -33.5387 -33.5279 -33.3977 -33.3965
   -33.3622 -33.3622 -33.3583 -33.3583 -33.3411 -33.3385 -33.3385 -33.3161
   -33.3090 -33.3090 -33.3025 -33.2938 -33.2938 -33.2841 -33.2841 -33.2829
     8.9457   9.0384  11.8801  12.0754  12.0754  12.7997  12.7997  13.2253
    14.9383  15.1551  15.2460  15.2460  15.3621  15.3621  15.8355  15.8355
    16.0179  16.0228  16.0527  16.0527  16.1634  16.3802  16.3802  16.3868
    16.3868  16.3965  16.4730  16.5878  16.5878  16.6297  16.6297  16.7074
    16.7372  16.7723  16.7723  16.7973  16.7973  16.8265  16.8265  16.8461
    16.8461  17.0508  17.7678  17.7678  17.7712  17.8498  17.8498  17.8932
    19.2928  19.3343  19.4206  19.4206  19.5032  19.5303  19.5303  19.5654
    19.6017  19.6017  19.6592  19.6592  19.7102  19.7102  19.7384  19.7838
    19.7838  19.8342  19.8554  19.8554  19.8644  19.8652  19.8652  19.9527
    19.9527  19.9880  20.0666  20.1943  20.1943  20.6103  21.7058  22.1327
    22.1327  23.0239  23.0239

     the Fermi energy is    18.3040 ev

!    total energy              =   -4632.67228828 Ry
     estimated scf accuracy    <          7.1E-11 Ry
     smearing contrib. (-TS)   =       0.00001789 Ry
     internal energy E=F+TS    =   -4632.67230617 Ry

     The total energy is F=E-TS. E is the sum of the following terms:
     one-electron contribution =   -1683.57363467 Ry
     hartree contribution      =     996.07728671 Ry
     xc contribution           =    -500.39962282 Ry
     ewald contribution        =   -2378.65614451 Ry
     one-center paw contrib.   =   -1066.12019087 Ry

     total magnetization       =    26.42 Bohr mag/cell
     absolute magnetization    =    28.51 Bohr mag/cell

     convergence has been achieved in  20 iterations

     negative rho (up, down):  0.000E+00 1.173E-03

     Forces acting on atoms (cartesian axes, Ry/au):

     atom    1 type  1   force =     0.00000000    0.00000000    0.00000000
     atom    2 type  2   force =     0.00000000    0.00000000    0.00000000
     atom    3 type  2   force =     0.00000000    0.00000000    0.00000000
     atom    4 type  2   force =     0.00000000    0.00000000    0.00000000
     atom    5 type  2   force =    -0.00000214   -0.00000214   -0.00000214
     atom    6 type  2   force =    -0.00000214    0.00000214    0.00000214
     atom    7 type  2   force =     0.00000214   -0.00000214    0.00000214
     atom    8 type  2   force =     0.00000214    0.00000214   -0.00000214
     atom    9 type  2   force =     0.00000214    0.00000214    0.00000214
     atom   10 type  2   force =     0.00000214   -0.00000214   -0.00000214
     atom   11 type  2   force =    -0.00000214    0.00000214   -0.00000214
     atom   12 type  2   force =    -0.00000214   -0.00000214    0.00000214
     atom   13 type  1   force =     0.00000000    0.00000000    0.00000000
     atom   14 type  2   force =     0.00000000    0.00000000    0.00000000
     atom   15 type  2   force =     0.00000000    0.00000000    0.00000000
     atom   16 type  2   force =     0.00000000    0.00000000    0.00000000

     Total force =     0.000010     Total SCF correction =     0.000029
     SCF correction compared to forces is large: reduce conv_thr to get better values

     Computing stress (Cartesian axis) and pressure

     negative rho (up, down):  0.000E+00 1.173E-03
          total   stress  (Ry/bohr**3)                   (kbar)     P=       -4.59
  -0.00003120   0.00000000   0.00000000           -4.59        0.00        0.00
   0.00000000  -0.00003120   0.00000000            0.00       -4.59        0.00
   0.00000000   0.00000000  -0.00003120            0.00        0.00       -4.59

     Writing all to output data dir ./file.save/

     General routines

     Parallel routines

   This run was terminated on:   9: 7:55  26Nov2022

   JOB DONE.